  Version,25.1;

  GlobalGeometryRules,
    UpperLeftCorner,         !- Starting Vertex Position
    Counterclockwise,        !- Vertex Entry Direction
    Relative,                !- Coordinate System
    Relative,                !- Daylighting Reference Point Coordinate System
    Relative;                !- Rectangular Surface Coordinate System

  Zone,
    BarCasino EL2 North Perim Spc (G.N2),  !- Name
    ,                        !- Direction of Relative North {deg}
    ,                        !- X Origin {m}
    ,                        !- Y Origin {m}
    ,                        !- Z Origin {m}
    ,                        !- Type
    1;                       !- Multiplier

  Zone,
    BarCasino EL3 North Perim Spc (G.N1),  !- Name
    ,                        !- Direction of Relative North {deg}
    ,                        !- X Origin {m}
    ,                        !- Y Origin {m}
    ,                        !- Z Origin {m}
    ,                        !- Type
    1;                       !- Multiplier

  Zone,
    Corridor EL4 Core Spc (G.C5),  !- Name
    ,                        !- Direction of Relative North {deg}
    ,                        !- X Origin {m}
    ,                        !- Y Origin {m}
    ,                        !- Z Origin {m}
    ,                        !- Type
    1;                       !- Multiplier

  Zone,
    Corridor EL4 Core Spc (M.C15),  !- Name
    ,                        !- Direction of Relative North {deg}
    ,                        !- X Origin {m}
    ,                        !- Y Origin {m}
    ,                        !- Z Origin {m}
    ,                        !- Type
    1;                       !- Multiplier

  Zone,
    Corridor EL4 Core Spc (T.C25),  !- Name
    ,                        !- Direction of Relative North {deg}
    ,                        !- X Origin {m}
    ,                        !- Y Origin {m}
    ,                        !- Z Origin {m}
    ,                        !- Type
    1;                       !- Multiplier

  Zone,
    Dining EL2 West Perim Spc (G.W3),  !- Name
    ,                        !- Direction of Relative North {deg}
    ,                        !- X Origin {m}
    ,                        !- Y Origin {m}
    ,                        !- Z Origin {m}
    ,                        !- Type
    1;                       !- Multiplier

  Zone,
    Dining EL3 West Perim Spc (G.W3),  !- Name
    ,                        !- Direction of Relative North {deg}
    ,                        !- X Origin {m}
    ,                        !- Y Origin {m}
    ,                        !- Z Origin {m}
    ,                        !- Type
    1;                       !- Multiplier

  Zone,
    EL1 East Perim Plnm (G.E6),  !- Name
    ,                        !- Direction of Relative North {deg}
    ,                        !- X Origin {m}
    ,                        !- Y Origin {m}
    ,                        !- Z Origin {m}
    ,                        !- Type
    1;                       !- Multiplier

  Zone,
    EL1 West Perim Plnm (G.W4),  !- Name
    ,                        !- Direction of Relative North {deg}
    ,                        !- X Origin {m}
    ,                        !- Y Origin {m}
    ,                        !- Z Origin {m}
    ,                        !- Type
    1;                       !- Multiplier

  Zone,
    EL1 West Perim Plnm (G.W5),  !- Name
    ,                        !- Direction of Relative North {deg}
    ,                        !- X Origin {m}
    ,                        !- Y Origin {m}
    ,                        !- Z Origin {m}
    ,                        !- Type
    1;                       !- Multiplier

  Zone,
    EL2 North Perim Plnm (G.N5),  !- Name
    ,                        !- Direction of Relative North {deg}
    ,                        !- X Origin {m}
    ,                        !- Y Origin {m}
    ,                        !- Z Origin {m}
    ,                        !- Type
    1;                       !- Multiplier

  Zone,
    EL2 South Perim Plnm (G.S4),  !- Name
    ,                        !- Direction of Relative North {deg}
    ,                        !- X Origin {m}
    ,                        !- Y Origin {m}
    ,                        !- Z Origin {m}
    ,                        !- Type
    1;                       !- Multiplier

  Zone,
    EL2 West Perim Plnm (G.W6),  !- Name
    ,                        !- Direction of Relative North {deg}
    ,                        !- X Origin {m}
    ,                        !- Y Origin {m}
    ,                        !- Z Origin {m}
    ,                        !- Type
    1;                       !- Multiplier

  Zone,
    EL3 North Perim Plnm (G.N4),  !- Name
    ,                        !- Direction of Relative North {deg}
    ,                        !- X Origin {m}
    ,                        !- Y Origin {m}
    ,                        !- Z Origin {m}
    ,                        !- Type
    1;                       !- Multiplier

  Zone,
    EL3 South Perim Plnm (G.S5),  !- Name
    ,                        !- Direction of Relative North {deg}
    ,                        !- X Origin {m}
    ,                        !- Y Origin {m}
    ,                        !- Z Origin {m}
    ,                        !- Type
    1;                       !- Multiplier

  Zone,
    EL3 West Perim Plnm (G.W6),  !- Name
    ,                        !- Direction of Relative North {deg}
    ,                        !- X Origin {m}
    ,                        !- Y Origin {m}
    ,                        !- Z Origin {m}
    ,                        !- Type
    1;                       !- Multiplier

  Zone,
    EL4 Core Plnm (G.C10),   !- Name
    ,                        !- Direction of Relative North {deg}
    ,                        !- X Origin {m}
    ,                        !- Y Origin {m}
    ,                        !- Z Origin {m}
    ,                        !- Type
    1;                       !- Multiplier

  Zone,
    EL4 Core Plnm (M.C20),   !- Name
    ,                        !- Direction of Relative North {deg}
    ,                        !- X Origin {m}
    ,                        !- Y Origin {m}
    ,                        !- Z Origin {m}
    ,                        !- Type
    1;                       !- Multiplier

  Zone,
    EL4 Core Plnm (T.C30),   !- Name
    ,                        !- Direction of Relative North {deg}
    ,                        !- X Origin {m}
    ,                        !- Y Origin {m}
    ,                        !- Z Origin {m}
    ,                        !- Type
    1;                       !- Multiplier

  Zone,
    EL4 NNE Perim Plnm (G.NNE8),  !- Name
    ,                        !- Direction of Relative North {deg}
    ,                        !- X Origin {m}
    ,                        !- Y Origin {m}
    ,                        !- Z Origin {m}
    ,                        !- Type
    1;                       !- Multiplier

  Zone,
    EL4 NNE Perim Plnm (M.NNE18),  !- Name
    ,                        !- Direction of Relative North {deg}
    ,                        !- X Origin {m}
    ,                        !- Y Origin {m}
    ,                        !- Z Origin {m}
    ,                        !- Type
    1;                       !- Multiplier

  Zone,
    EL4 NNE Perim Plnm (T.NNE28),  !- Name
    ,                        !- Direction of Relative North {deg}
    ,                        !- X Origin {m}
    ,                        !- Y Origin {m}
    ,                        !- Z Origin {m}
    ,                        !- Type
    1;                       !- Multiplier

  Zone,
    EL4 North Perim Plnm (G.N6),  !- Name
    ,                        !- Direction of Relative North {deg}
    ,                        !- X Origin {m}
    ,                        !- Y Origin {m}
    ,                        !- Z Origin {m}
    ,                        !- Type
    1;                       !- Multiplier

  Zone,
    EL4 North Perim Plnm (M.N16),  !- Name
    ,                        !- Direction of Relative North {deg}
    ,                        !- X Origin {m}
    ,                        !- Y Origin {m}
    ,                        !- Z Origin {m}
    ,                        !- Type
    1;                       !- Multiplier

  Zone,
    EL4 North Perim Plnm (T.N26),  !- Name
    ,                        !- Direction of Relative North {deg}
    ,                        !- X Origin {m}
    ,                        !- Y Origin {m}
    ,                        !- Z Origin {m}
    ,                        !- Type
    1;                       !- Multiplier

  Zone,
    EL4 SSW Perim Plnm (G.SSW7),  !- Name
    ,                        !- Direction of Relative North {deg}
    ,                        !- X Origin {m}
    ,                        !- Y Origin {m}
    ,                        !- Z Origin {m}
    ,                        !- Type
    1;                       !- Multiplier

  Zone,
    EL4 SSW Perim Plnm (M.SSW17),  !- Name
    ,                        !- Direction of Relative North {deg}
    ,                        !- X Origin {m}
    ,                        !- Y Origin {m}
    ,                        !- Z Origin {m}
    ,                        !- Type
    1;                       !- Multiplier

  Zone,
    EL4 SSW Perim Plnm (T.SSW27),  !- Name
    ,                        !- Direction of Relative North {deg}
    ,                        !- X Origin {m}
    ,                        !- Y Origin {m}
    ,                        !- Z Origin {m}
    ,                        !- Type
    1;                       !- Multiplier

  Zone,
    EL4 South Perim Plnm (G.S9),  !- Name
    ,                        !- Direction of Relative North {deg}
    ,                        !- X Origin {m}
    ,                        !- Y Origin {m}
    ,                        !- Z Origin {m}
    ,                        !- Type
    1;                       !- Multiplier

  Zone,
    EL4 South Perim Plnm (M.S19),  !- Name
    ,                        !- Direction of Relative North {deg}
    ,                        !- X Origin {m}
    ,                        !- Y Origin {m}
    ,                        !- Z Origin {m}
    ,                        !- Type
    1;                       !- Multiplier

  Zone,
    EL4 South Perim Plnm (T.S29),  !- Name
    ,                        !- Direction of Relative North {deg}
    ,                        !- X Origin {m}
    ,                        !- Y Origin {m}
    ,                        !- Z Origin {m}
    ,                        !- Type
    1;                       !- Multiplier

  Zone,
    GuestRm EL4 NNE Perim Spc (G.NNE3),  !- Name
    ,                        !- Direction of Relative North {deg}
    ,                        !- X Origin {m}
    ,                        !- Y Origin {m}
    ,                        !- Z Origin {m}
    ,                        !- Type
    1;                       !- Multiplier

  Zone,
    GuestRm EL4 NNE Perim Spc (M.NNE13),  !- Name
    ,                        !- Direction of Relative North {deg}
    ,                        !- X Origin {m}
    ,                        !- Y Origin {m}
    ,                        !- Z Origin {m}
    ,                        !- Type
    1;                       !- Multiplier

  Zone,
    GuestRm EL4 NNE Perim Spc (T.NNE23),  !- Name
    ,                        !- Direction of Relative North {deg}
    ,                        !- X Origin {m}
    ,                        !- Y Origin {m}
    ,                        !- Z Origin {m}
    ,                        !- Type
    1;                       !- Multiplier

  Zone,
    GuestRm EL4 North Perim Spc (G.N1),  !- Name
    ,                        !- Direction of Relative North {deg}
    ,                        !- X Origin {m}
    ,                        !- Y Origin {m}
    ,                        !- Z Origin {m}
    ,                        !- Type
    1;                       !- Multiplier

  Zone,
    GuestRm EL4 North Perim Spc (M.N11),  !- Name
    ,                        !- Direction of Relative North {deg}
    ,                        !- X Origin {m}
    ,                        !- Y Origin {m}
    ,                        !- Z Origin {m}
    ,                        !- Type
    1;                       !- Multiplier

  Zone,
    GuestRm EL4 North Perim Spc (T.N21),  !- Name
    ,                        !- Direction of Relative North {deg}
    ,                        !- X Origin {m}
    ,                        !- Y Origin {m}
    ,                        !- Z Origin {m}
    ,                        !- Type
    1;                       !- Multiplier

  Zone,
    GuestRm EL4 SSW Perim Spc (G.SSW2),  !- Name
    ,                        !- Direction of Relative North {deg}
    ,                        !- X Origin {m}
    ,                        !- Y Origin {m}
    ,                        !- Z Origin {m}
    ,                        !- Type
    1;                       !- Multiplier

  Zone,
    GuestRm EL4 SSW Perim Spc (M.SSW12),  !- Name
    ,                        !- Direction of Relative North {deg}
    ,                        !- X Origin {m}
    ,                        !- Y Origin {m}
    ,                        !- Z Origin {m}
    ,                        !- Type
    1;                       !- Multiplier

  Zone,
    GuestRm EL4 SSW Perim Spc (T.SSW22),  !- Name
    ,                        !- Direction of Relative North {deg}
    ,                        !- X Origin {m}
    ,                        !- Y Origin {m}
    ,                        !- Z Origin {m}
    ,                        !- Type
    1;                       !- Multiplier

  Zone,
    GuestRm EL4 South Perim Spc (G.S4),  !- Name
    ,                        !- Direction of Relative North {deg}
    ,                        !- X Origin {m}
    ,                        !- Y Origin {m}
    ,                        !- Z Origin {m}
    ,                        !- Type
    1;                       !- Multiplier

  Zone,
    GuestRm EL4 South Perim Spc (M.S14),  !- Name
    ,                        !- Direction of Relative North {deg}
    ,                        !- X Origin {m}
    ,                        !- Y Origin {m}
    ,                        !- Z Origin {m}
    ,                        !- Type
    1;                       !- Multiplier

  Zone,
    GuestRm EL4 South Perim Spc (T.S24),  !- Name
    ,                        !- Direction of Relative North {deg}
    ,                        !- X Origin {m}
    ,                        !- Y Origin {m}
    ,                        !- Z Origin {m}
    ,                        !- Type
    1;                       !- Multiplier

  Zone,
    Kitchen EL2 South Perim Spc (G.S1),  !- Name
    ,                        !- Direction of Relative North {deg}
    ,                        !- X Origin {m}
    ,                        !- Y Origin {m}
    ,                        !- Z Origin {m}
    ,                        !- Type
    1;                       !- Multiplier

  Zone,
    Kitchen EL3 South Perim Spc (G.S2),  !- Name
    ,                        !- Direction of Relative North {deg}
    ,                        !- X Origin {m}
    ,                        !- Y Origin {m}
    ,                        !- Z Origin {m}
    ,                        !- Type
    1;                       !- Multiplier

  Zone,
    Laundry EL1 West Perim Spc (G.W1),  !- Name
    ,                        !- Direction of Relative North {deg}
    ,                        !- X Origin {m}
    ,                        !- Y Origin {m}
    ,                        !- Z Origin {m}
    ,                        !- Type
    1;                       !- Multiplier

  Zone,
    Lobby EL1 West Perim Spc (G.W2),  !- Name
    ,                        !- Direction of Relative North {deg}
    ,                        !- X Origin {m}
    ,                        !- Y Origin {m}
    ,                        !- Z Origin {m}
    ,                        !- Type
    1;                       !- Multiplier

  Zone,
    Office EL1 East Perim Spc (G.E3),  !- Name
    ,                        !- Direction of Relative North {deg}
    ,                        !- X Origin {m}
    ,                        !- Y Origin {m}
    ,                        !- Z Origin {m}
    ,                        !- Type
    1;                       !- Multiplier

  BuildingSurface:Detailed,
    EL1 Ceiling (G.E3.I7)-mirror,  !- Name
    Floor,                   !- Surface Type
    Interior Floor,          !- Construction Name
    EL1 East Perim Plnm (G.E6),  !- Zone Name
    ,                        !- Space Name
    Surface,                 !- Outside Boundary Condition
    EL1 Ceiling (G.E3.I7)-mirror Reversed,  !- Outside Boundary Condition Object
    NoSun,                   !- Sun Exposure
    NoWind,                  !- Wind Exposure
    ,                        !- View Factor to Ground
    ,                        !- Number of Vertices
    92.79636,16.4592,3.2004,  !- X,Y,Z ==> Vertex 1 {m}
    92.79636,-1.136465088e-14,3.2004,  !- X,Y,Z ==> Vertex 2 {m}
    69.598032,-1.136465088e-14,3.2004,  !- X,Y,Z ==> Vertex 3 {m}
    69.598032,16.4592,3.2004;  !- X,Y,Z ==> Vertex 4 {m}

  BuildingSurface:Detailed,
    EL1 Ceiling (G.E3.I7)-mirror Reversed,  !- Name
    Ceiling,                 !- Surface Type
    Radiant Interior Ceiling,!- Construction Name
    Office EL1 East Perim Spc (G.E3),  !- Zone Name
    ,                        !- Space Name
    Surface,                 !- Outside Boundary Condition
    EL1 Ceiling (G.E3.I7)-mirror,  !- Outside Boundary Condition Object
    NoSun,                   !- Sun Exposure
    NoWind,                  !- Wind Exposure
    ,                        !- View Factor to Ground
    ,                        !- Number of Vertices
    92.79636,-1.136465088e-14,3.2004,  !- X,Y,Z ==> Vertex 1 {m}
    92.79636,16.4592,3.2004,  !- X,Y,Z ==> Vertex 2 {m}
    69.598032,16.4592,3.2004,  !- X,Y,Z ==> Vertex 3 {m}
    69.598032,-1.136465088e-14,3.2004;  !- X,Y,Z ==> Vertex 4 {m}

  BuildingSurface:Detailed,
    EL1 Ceiling (G.W1.I3)-mirror,  !- Name
    Floor,                   !- Surface Type
    Interior Floor,          !- Construction Name
    EL1 West Perim Plnm (G.W4),  !- Zone Name
    ,                        !- Space Name
    Surface,                 !- Outside Boundary Condition
    EL1 Ceiling (G.W1.I3)-mirror Reversed,  !- Outside Boundary Condition Object
    NoSun,                   !- Sun Exposure
    NoWind,                  !- Wind Exposure
    ,                        !- View Factor to Ground
    ,                        !- Number of Vertices
    23.19829752,16.4592,3.2004,  !- X,Y,Z ==> Vertex 1 {m}
    23.19829752,-3.45682824e-07,3.2004,  !- X,Y,Z ==> Vertex 2 {m}
    0,-3.45682824e-07,3.2004,  !- X,Y,Z ==> Vertex 3 {m}
    0,16.4592,3.2004;  !- X,Y,Z ==> Vertex 4 {m}

  BuildingSurface:Detailed,
    EL1 Ceiling (G.W1.I3)-mirror Reversed,  !- Name
    Ceiling,                 !- Surface Type
    Radiant Interior Ceiling,!- Construction Name
    Laundry EL1 West Perim Spc (G.W1),  !- Zone Name
    ,                        !- Space Name
    Surface,                 !- Outside Boundary Condition
    EL1 Ceiling (G.W1.I3)-mirror,  !- Outside Boundary Condition Object
    NoSun,                   !- Sun Exposure
    NoWind,                  !- Wind Exposure
    ,                        !- View Factor to Ground
    ,                        !- Number of Vertices
    23.19829752,-3.45682824e-07,3.2004,  !- X,Y,Z ==> Vertex 1 {m}
    23.19829752,16.4592,3.2004,  !- X,Y,Z ==> Vertex 2 {m}
    0,16.4592,3.2004,  !- X,Y,Z ==> Vertex 3 {m}
    0,-3.45682824e-07,3.2004;  !- X,Y,Z ==> Vertex 4 {m}

  BuildingSurface:Detailed,
    EL1 Ceiling (G.W2.I5)-mirror,  !- Name
    Floor,                   !- Surface Type
    Interior Floor,          !- Construction Name
    EL1 West Perim Plnm (G.W5),  !- Zone Name
    ,                        !- Space Name
    Surface,                 !- Outside Boundary Condition
    EL1 Ceiling (G.W2.I5)-mirror Reversed,  !- Outside Boundary Condition Object
    NoSun,                   !- Sun Exposure
    NoWind,                  !- Wind Exposure
    ,                        !- View Factor to Ground
    ,                        !- Number of Vertices
    69.598032,16.4592,3.2004,  !- X,Y,Z ==> Vertex 1 {m}
    69.598032,-3.45682824e-07,3.2004,  !- X,Y,Z ==> Vertex 2 {m}
    23.198328,-3.45682824e-07,3.2004,  !- X,Y,Z ==> Vertex 3 {m}
    23.198328,16.4592,3.2004;  !- X,Y,Z ==> Vertex 4 {m}

  BuildingSurface:Detailed,
    EL1 Ceiling (G.W2.I5)-mirror Reversed,  !- Name
    Ceiling,                 !- Surface Type
    Radiant Interior Ceiling,!- Construction Name
    Lobby EL1 West Perim Spc (G.W2),  !- Zone Name
    ,                        !- Space Name
    Surface,                 !- Outside Boundary Condition
    EL1 Ceiling (G.W2.I5)-mirror,  !- Outside Boundary Condition Object
    NoSun,                   !- Sun Exposure
    NoWind,                  !- Wind Exposure
    ,                        !- View Factor to Ground
    ,                        !- Number of Vertices
    69.598032,-3.45682824e-07,3.2004,  !- X,Y,Z ==> Vertex 1 {m}
    69.598032,16.4592,3.2004,  !- X,Y,Z ==> Vertex 2 {m}
    23.198328,16.4592,3.2004,  !- X,Y,Z ==> Vertex 3 {m}
    23.198328,-3.45682824e-07,3.2004;  !- X,Y,Z ==> Vertex 4 {m}

  BuildingSurface:Detailed,
    EL1 East Perim Plnm (G.E6) - Wall 090_a,  !- Name
    Wall,                    !- Surface Type
    Interior Wall,           !- Construction Name
    EL1 East Perim Plnm (G.E6),  !- Zone Name
    ,                        !- Space Name
    Surface,                 !- Outside Boundary Condition
    EL1 East Perim Plnm (G.E6) - Wall 090_a Reversed,  !- Outside Boundary Condition Object
    NoSun,                   !- Sun Exposure
    NoWind,                  !- Wind Exposure
    ,                        !- View Factor to Ground
    ,                        !- Number of Vertices
    92.79636,-1.136465088e-14,3.6576,  !- X,Y,Z ==> Vertex 1 {m}
    92.79636,-1.136465088e-14,3.2004,  !- X,Y,Z ==> Vertex 2 {m}
    92.79636,7.35790248,3.2004,  !- X,Y,Z ==> Vertex 3 {m}
    92.79636,7.35790248,3.6576;  !- X,Y,Z ==> Vertex 4 {m}

  BuildingSurface:Detailed,
    EL1 East Perim Plnm (G.E6) - Wall 090_a Reversed,  !- Name
    Wall,                    !- Surface Type
    Interior Wall,           !- Construction Name
    EL3 South Perim Plnm (G.S5),  !- Zone Name
    ,                        !- Space Name
    Surface,                 !- Outside Boundary Condition
    EL1 East Perim Plnm (G.E6) - Wall 090_a,  !- Outside Boundary Condition Object
    NoSun,                   !- Sun Exposure
    NoWind,                  !- Wind Exposure
    ,                        !- View Factor to Ground
    ,                        !- Number of Vertices
    92.79636,7.35790248,3.6576,  !- X,Y,Z ==> Vertex 1 {m}
    92.79636,7.35790248,3.2004,  !- X,Y,Z ==> Vertex 2 {m}
    92.79636,-1.136465088e-14,3.2004,  !- X,Y,Z ==> Vertex 3 {m}
    92.79636,-1.136465088e-14,3.6576;  !- X,Y,Z ==> Vertex 4 {m}

  BuildingSurface:Detailed,
    EL1 East Perim Plnm (G.E6) - Wall 090_b,  !- Name
    Wall,                    !- Surface Type
    Interior Wall,           !- Construction Name
    EL1 East Perim Plnm (G.E6),  !- Zone Name
    ,                        !- Space Name
    Surface,                 !- Outside Boundary Condition
    EL1 East Perim Plnm (G.E6) - Wall 090_b Reversed,  !- Outside Boundary Condition Object
    NoSun,                   !- Sun Exposure
    NoWind,                  !- Wind Exposure
    ,                        !- View Factor to Ground
    ,                        !- Number of Vertices
    92.79636,7.35790248,3.6576,  !- X,Y,Z ==> Vertex 1 {m}
    92.79636,7.35790248,3.2004,  !- X,Y,Z ==> Vertex 2 {m}
    92.79636,12.06401448,3.2004,  !- X,Y,Z ==> Vertex 3 {m}
    92.79636,12.06401448,3.6576;  !- X,Y,Z ==> Vertex 4 {m}

  BuildingSurface:Detailed,
    EL1 East Perim Plnm (G.E6) - Wall 090_b Reversed,  !- Name
    Wall,                    !- Surface Type
    Interior Wall,           !- Construction Name
    EL3 West Perim Plnm (G.W6),  !- Zone Name
    ,                        !- Space Name
    Surface,                 !- Outside Boundary Condition
    EL1 East Perim Plnm (G.E6) - Wall 090_b,  !- Outside Boundary Condition Object
    NoSun,                   !- Sun Exposure
    NoWind,                  !- Wind Exposure
    ,                        !- View Factor to Ground
    ,                        !- Number of Vertices
    92.79636,12.06401448,3.6576,  !- X,Y,Z ==> Vertex 1 {m}
    92.79636,12.06401448,3.2004,  !- X,Y,Z ==> Vertex 2 {m}
    92.79636,7.35790248,3.2004,  !- X,Y,Z ==> Vertex 3 {m}
    92.79636,7.35790248,3.6576;  !- X,Y,Z ==> Vertex 4 {m}

  BuildingSurface:Detailed,
    EL1 East Perim Spc (G.E3) - Wall 090_a,  !- Name
    Wall,                    !- Surface Type
    Interior Wall,           !- Construction Name
    Office EL1 East Perim Spc (G.E3),  !- Zone Name
    ,                        !- Space Name
    Surface,                 !- Outside Boundary Condition
    EL1 East Perim Spc (G.E3) - Wall 090_a Reversed,  !- Outside Boundary Condition Object
    NoSun,                   !- Sun Exposure
    NoWind,                  !- Wind Exposure
    ,                        !- View Factor to Ground
    ,                        !- Number of Vertices
    92.79636,-1.136465088e-14,3.2004,  !- X,Y,Z ==> Vertex 1 {m}
    92.79636,-1.136465088e-14,0,  !- X,Y,Z ==> Vertex 2 {m}
    92.79636,7.35790248,0,  !- X,Y,Z ==> Vertex 3 {m}
    92.79636,7.35790248,3.2004;  !- X,Y,Z ==> Vertex 4 {m}

  BuildingSurface:Detailed,
    EL1 East Perim Spc (G.E3) - Wall 090_a Reversed,  !- Name
    Wall,                    !- Surface Type
    Interior Wall,           !- Construction Name
    Kitchen EL3 South Perim Spc (G.S2),  !- Zone Name
    ,                        !- Space Name
    Surface,                 !- Outside Boundary Condition
    EL1 East Perim Spc (G.E3) - Wall 090_a,  !- Outside Boundary Condition Object
    NoSun,                   !- Sun Exposure
    NoWind,                  !- Wind Exposure
    ,                        !- View Factor to Ground
    ,                        !- Number of Vertices
    92.79636,7.35790248,3.2004,  !- X,Y,Z ==> Vertex 1 {m}
    92.79636,7.35790248,0,  !- X,Y,Z ==> Vertex 2 {m}
    92.79636,-1.136465088e-14,0,  !- X,Y,Z ==> Vertex 3 {m}
    92.79636,-1.136465088e-14,3.2004;  !- X,Y,Z ==> Vertex 4 {m}

  BuildingSurface:Detailed,
    EL1 East Perim Spc (G.E3) - Wall 090_b,  !- Name
    Wall,                    !- Surface Type
    Interior Wall,           !- Construction Name
    Office EL1 East Perim Spc (G.E3),  !- Zone Name
    ,                        !- Space Name
    Surface,                 !- Outside Boundary Condition
    EL1 East Perim Spc (G.E3) - Wall 090_b Reversed,  !- Outside Boundary Condition Object
    NoSun,                   !- Sun Exposure
    NoWind,                  !- Wind Exposure
    ,                        !- View Factor to Ground
    ,                        !- Number of Vertices
    92.79636,7.35790248,3.2004,  !- X,Y,Z ==> Vertex 1 {m}
    92.79636,7.35790248,0,  !- X,Y,Z ==> Vertex 2 {m}
    92.79636,12.06401448,0,  !- X,Y,Z ==> Vertex 3 {m}
    92.79636,12.06401448,3.2004;  !- X,Y,Z ==> Vertex 4 {m}

  BuildingSurface:Detailed,
    EL1 East Perim Spc (G.E3) - Wall 090_b Reversed,  !- Name
    Wall,                    !- Surface Type
    Interior Wall,           !- Construction Name
    Dining EL3 West Perim Spc (G.W3),  !- Zone Name
    ,                        !- Space Name
    Surface,                 !- Outside Boundary Condition
    EL1 East Perim Spc (G.E3) - Wall 090_b,  !- Outside Boundary Condition Object
    NoSun,                   !- Sun Exposure
    NoWind,                  !- Wind Exposure
    ,                        !- View Factor to Ground
    ,                        !- Number of Vertices
    92.79636,12.06401448,3.2004,  !- X,Y,Z ==> Vertex 1 {m}
    92.79636,12.06401448,0,  !- X,Y,Z ==> Vertex 2 {m}
    92.79636,7.35790248,0,  !- X,Y,Z ==> Vertex 3 {m}
    92.79636,7.35790248,3.2004;  !- X,Y,Z ==> Vertex 4 {m}

  BuildingSurface:Detailed,
    EL1 East Wall (G.E3.I6), !- Name
    Wall,                    !- Surface Type
    Interior Wall,           !- Construction Name
    Office EL1 East Perim Spc (G.E3),  !- Zone Name
    ,                        !- Space Name
    Surface,                 !- Outside Boundary Condition
    EL1 East Wall (G.E3.I6) Reversed,  !- Outside Boundary Condition Object
    NoSun,                   !- Sun Exposure
    NoWind,                  !- Wind Exposure
    ,                        !- View Factor to Ground
    ,                        !- Number of Vertices
    92.79636,12.06401448,3.2004,  !- X,Y,Z ==> Vertex 1 {m}
    92.79636,12.06401448,0,  !- X,Y,Z ==> Vertex 2 {m}
    92.79636,16.4592,0,  !- X,Y,Z ==> Vertex 3 {m}
    92.79636,16.4592,3.2004;  !- X,Y,Z ==> Vertex 4 {m}

  BuildingSurface:Detailed,
    EL1 East Wall (G.E3.I6) Reversed,  !- Name
    Wall,                    !- Surface Type
    Interior Wall,           !- Construction Name
    BarCasino EL3 North Perim Spc (G.N1),  !- Zone Name
    ,                        !- Space Name
    Surface,                 !- Outside Boundary Condition
    EL1 East Wall (G.E3.I6), !- Outside Boundary Condition Object
    NoSun,                   !- Sun Exposure
    NoWind,                  !- Wind Exposure
    ,                        !- View Factor to Ground
    ,                        !- Number of Vertices
    92.79636,16.4592,3.2004,  !- X,Y,Z ==> Vertex 1 {m}
    92.79636,16.4592,0,  !- X,Y,Z ==> Vertex 2 {m}
    92.79636,12.06401448,0,  !- X,Y,Z ==> Vertex 3 {m}
    92.79636,12.06401448,3.2004;  !- X,Y,Z ==> Vertex 4 {m}

  BuildingSurface:Detailed,
    EL1 East Wall (G.E6.I11),!- Name
    Wall,                    !- Surface Type
    Interior Wall,           !- Construction Name
    EL1 East Perim Plnm (G.E6),  !- Zone Name
    ,                        !- Space Name
    Surface,                 !- Outside Boundary Condition
    EL1 East Wall (G.E6.I11) Reversed,  !- Outside Boundary Condition Object
    NoSun,                   !- Sun Exposure
    NoWind,                  !- Wind Exposure
    ,                        !- View Factor to Ground
    ,                        !- Number of Vertices
    92.79636,12.06401448,3.6576,  !- X,Y,Z ==> Vertex 1 {m}
    92.79636,12.06401448,3.2004,  !- X,Y,Z ==> Vertex 2 {m}
    92.79636,16.4592,3.2004,  !- X,Y,Z ==> Vertex 3 {m}
    92.79636,16.4592,3.6576;  !- X,Y,Z ==> Vertex 4 {m}

  BuildingSurface:Detailed,
    EL1 East Wall (G.E6.I11) Reversed,  !- Name
    Wall,                    !- Surface Type
    Interior Wall,           !- Construction Name
    EL3 North Perim Plnm (G.N4),  !- Zone Name
    ,                        !- Space Name
    Surface,                 !- Outside Boundary Condition
    EL1 East Wall (G.E6.I11),!- Outside Boundary Condition Object
    NoSun,                   !- Sun Exposure
    NoWind,                  !- Wind Exposure
    ,                        !- View Factor to Ground
    ,                        !- Number of Vertices
    92.79636,16.4592,3.6576,  !- X,Y,Z ==> Vertex 1 {m}
    92.79636,16.4592,3.2004,  !- X,Y,Z ==> Vertex 2 {m}
    92.79636,12.06401448,3.2004,  !- X,Y,Z ==> Vertex 3 {m}
    92.79636,12.06401448,3.6576;  !- X,Y,Z ==> Vertex 4 {m}

  BuildingSurface:Detailed,
    EL1 East Wall (G.W1.I1), !- Name
    Wall,                    !- Surface Type
    Interior Wall,           !- Construction Name
    Laundry EL1 West Perim Spc (G.W1),  !- Zone Name
    ,                        !- Space Name
    Surface,                 !- Outside Boundary Condition
    EL1 East Wall (G.W1.I1) Reversed,  !- Outside Boundary Condition Object
    NoSun,                   !- Sun Exposure
    NoWind,                  !- Wind Exposure
    ,                        !- View Factor to Ground
    ,                        !- Number of Vertices
    23.19829752,-3.45682824e-07,3.2004,  !- X,Y,Z ==> Vertex 1 {m}
    23.19829752,-3.45682824e-07,0,  !- X,Y,Z ==> Vertex 2 {m}
    23.19829752,16.4592,0,  !- X,Y,Z ==> Vertex 3 {m}
    23.19829752,16.4592,3.2004;  !- X,Y,Z ==> Vertex 4 {m}

  BuildingSurface:Detailed,
    EL1 East Wall (G.W1.I1) Reversed,  !- Name
    Wall,                    !- Surface Type
    Interior Wall,           !- Construction Name
    Lobby EL1 West Perim Spc (G.W2),  !- Zone Name
    ,                        !- Space Name
    Surface,                 !- Outside Boundary Condition
    EL1 East Wall (G.W1.I1), !- Outside Boundary Condition Object
    NoSun,                   !- Sun Exposure
    NoWind,                  !- Wind Exposure
    ,                        !- View Factor to Ground
    ,                        !- Number of Vertices
    23.19829752,16.4592,3.2004,  !- X,Y,Z ==> Vertex 1 {m}
    23.19829752,16.4592,0,  !- X,Y,Z ==> Vertex 2 {m}
    23.19829752,-3.45682824e-07,0,  !- X,Y,Z ==> Vertex 3 {m}
    23.19829752,-3.45682824e-07,3.2004;  !- X,Y,Z ==> Vertex 4 {m}

  BuildingSurface:Detailed,
    EL1 East Wall (G.W2.I4)-mirror,  !- Name
    Wall,                    !- Surface Type
    Interior Wall,           !- Construction Name
    Office EL1 East Perim Spc (G.E3),  !- Zone Name
    ,                        !- Space Name
    Surface,                 !- Outside Boundary Condition
    EL1 East Wall (G.W2.I4)-mirror Reversed,  !- Outside Boundary Condition Object
    NoSun,                   !- Sun Exposure
    NoWind,                  !- Wind Exposure
    ,                        !- View Factor to Ground
    ,                        !- Number of Vertices
    69.598032,16.4592,3.2004,  !- X,Y,Z ==> Vertex 1 {m}
    69.598032,16.4592,0,  !- X,Y,Z ==> Vertex 2 {m}
    69.598032,-1.136465088e-14,0,  !- X,Y,Z ==> Vertex 3 {m}
    69.598032,-1.136465088e-14,3.2004;  !- X,Y,Z ==> Vertex 4 {m}

  BuildingSurface:Detailed,
    EL1 East Wall (G.W2.I4)-mirror Reversed,  !- Name
    Wall,                    !- Surface Type
    Interior Wall,           !- Construction Name
    Lobby EL1 West Perim Spc (G.W2),  !- Zone Name
    ,                        !- Space Name
    Surface,                 !- Outside Boundary Condition
    EL1 East Wall (G.W2.I4)-mirror,  !- Outside Boundary Condition Object
    NoSun,                   !- Sun Exposure
    NoWind,                  !- Wind Exposure
    ,                        !- View Factor to Ground
    ,                        !- Number of Vertices
    69.598032,-1.136465088e-14,3.2004,  !- X,Y,Z ==> Vertex 1 {m}
    69.598032,-1.136465088e-14,0,  !- X,Y,Z ==> Vertex 2 {m}
    69.598032,16.4592,0,  !- X,Y,Z ==> Vertex 3 {m}
    69.598032,16.4592,3.2004;  !- X,Y,Z ==> Vertex 4 {m}

  BuildingSurface:Detailed,
    EL1 East Wall (G.W4.I8), !- Name
    Wall,                    !- Surface Type
    Interior Wall,           !- Construction Name
    EL1 West Perim Plnm (G.W4),  !- Zone Name
    ,                        !- Space Name
    Surface,                 !- Outside Boundary Condition
    EL1 East Wall (G.W4.I8) Reversed,  !- Outside Boundary Condition Object
    NoSun,                   !- Sun Exposure
    NoWind,                  !- Wind Exposure
    ,                        !- View Factor to Ground
    ,                        !- Number of Vertices
    23.19829752,-3.45682824e-07,3.6576,  !- X,Y,Z ==> Vertex 1 {m}
    23.19829752,-3.45682824e-07,3.2004,  !- X,Y,Z ==> Vertex 2 {m}
    23.19829752,16.4592,3.2004,  !- X,Y,Z ==> Vertex 3 {m}
    23.19829752,16.4592,3.6576;  !- X,Y,Z ==> Vertex 4 {m}

  BuildingSurface:Detailed,
    EL1 East Wall (G.W4.I8) Reversed,  !- Name
    Wall,                    !- Surface Type
    Interior Wall,           !- Construction Name
    EL1 West Perim Plnm (G.W5),  !- Zone Name
    ,                        !- Space Name
    Surface,                 !- Outside Boundary Condition
    EL1 East Wall (G.W4.I8), !- Outside Boundary Condition Object
    NoSun,                   !- Sun Exposure
    NoWind,                  !- Wind Exposure
    ,                        !- View Factor to Ground
    ,                        !- Number of Vertices
    23.19829752,16.4592,3.6576,  !- X,Y,Z ==> Vertex 1 {m}
    23.19829752,16.4592,3.2004,  !- X,Y,Z ==> Vertex 2 {m}
    23.19829752,-3.45682824e-07,3.2004,  !- X,Y,Z ==> Vertex 3 {m}
    23.19829752,-3.45682824e-07,3.6576;  !- X,Y,Z ==> Vertex 4 {m}

  BuildingSurface:Detailed,
    EL1 East Wall (G.W5.I10)-mirror,  !- Name
    Wall,                    !- Surface Type
    Interior Wall,           !- Construction Name
    EL1 East Perim Plnm (G.E6),  !- Zone Name
    ,                        !- Space Name
    Surface,                 !- Outside Boundary Condition
    EL1 East Wall (G.W5.I10)-mirror Reversed,  !- Outside Boundary Condition Object
    NoSun,                   !- Sun Exposure
    NoWind,                  !- Wind Exposure
    ,                        !- View Factor to Ground
    ,                        !- Number of Vertices
    69.598032,16.4592,3.6576,  !- X,Y,Z ==> Vertex 1 {m}
    69.598032,16.4592,3.2004,  !- X,Y,Z ==> Vertex 2 {m}
    69.598032,-1.136465088e-14,3.2004,  !- X,Y,Z ==> Vertex 3 {m}
    69.598032,-1.136465088e-14,3.6576;  !- X,Y,Z ==> Vertex 4 {m}

  BuildingSurface:Detailed,
    EL1 East Wall (G.W5.I10)-mirror Reversed,  !- Name
    Wall,                    !- Surface Type
    Interior Wall,           !- Construction Name
    EL1 West Perim Plnm (G.W5),  !- Zone Name
    ,                        !- Space Name
    Surface,                 !- Outside Boundary Condition
    EL1 East Wall (G.W5.I10)-mirror,  !- Outside Boundary Condition Object
    NoSun,                   !- Sun Exposure
    NoWind,                  !- Wind Exposure
    ,                        !- View Factor to Ground
    ,                        !- Number of Vertices
    69.598032,-1.136465088e-14,3.6576,  !- X,Y,Z ==> Vertex 1 {m}
    69.598032,-1.136465088e-14,3.2004,  !- X,Y,Z ==> Vertex 2 {m}
    69.598032,16.4592,3.2004,  !- X,Y,Z ==> Vertex 3 {m}
    69.598032,16.4592,3.6576;  !- X,Y,Z ==> Vertex 4 {m}

  BuildingSurface:Detailed,
    EL1 Flr (G.E3.U3),       !- Name
    Floor,                   !- Surface Type
    EL1 Flr (G.E3.U3) SlabOnOrBelowGradeF073,  !- Construction Name
    Office EL1 East Perim Spc (G.E3),  !- Zone Name
    ,                        !- Space Name
    GroundFCfactorMethod,    !- Outside Boundary Condition
    ,                        !- Outside Boundary Condition Object
    NoSun,                   !- Sun Exposure
    NoWind,                  !- Wind Exposure
    ,                        !- View Factor to Ground
    ,                        !- Number of Vertices
    92.79636,16.4592,0,  !- X,Y,Z ==> Vertex 1 {m}
    92.79636,-1.136465088e-14,0,  !- X,Y,Z ==> Vertex 2 {m}
    69.598032,-1.136465088e-14,0,  !- X,Y,Z ==> Vertex 3 {m}
    69.598032,16.4592,0;  !- X,Y,Z ==> Vertex 4 {m}

  BuildingSurface:Detailed,
    EL1 Flr (G.W1.U1),       !- Name
    Floor,                   !- Surface Type
    EL1 Flr (G.W1.U1) SlabOnOrBelowGradeF073,  !- Construction Name
    Laundry EL1 West Perim Spc (G.W1),  !- Zone Name
    ,                        !- Space Name
    GroundFCfactorMethod,    !- Outside Boundary Condition
    ,                        !- Outside Boundary Condition Object
    NoSun,                   !- Sun Exposure
    NoWind,                  !- Wind Exposure
    ,                        !- View Factor to Ground
    ,                        !- Number of Vertices
    23.19829752,16.4592,0,  !- X,Y,Z ==> Vertex 1 {m}
    23.19829752,-3.45682824e-07,0,  !- X,Y,Z ==> Vertex 2 {m}
    0,-3.45682824e-07,0,  !- X,Y,Z ==> Vertex 3 {m}
    0,16.4592,0;  !- X,Y,Z ==> Vertex 4 {m}

  BuildingSurface:Detailed,
    EL1 Flr (G.W2.U2),       !- Name
    Floor,                   !- Surface Type
    EL1 Flr (G.W2.U2) SlabOnOrBelowGradeF073,  !- Construction Name
    Lobby EL1 West Perim Spc (G.W2),  !- Zone Name
    ,                        !- Space Name
    GroundFCfactorMethod,    !- Outside Boundary Condition
    ,                        !- Outside Boundary Condition Object
    NoSun,                   !- Sun Exposure
    NoWind,                  !- Wind Exposure
    ,                        !- View Factor to Ground
    ,                        !- Number of Vertices
    69.598032,16.4592,0,  !- X,Y,Z ==> Vertex 1 {m}
    69.598032,-3.45682824e-07,0,  !- X,Y,Z ==> Vertex 2 {m}
    23.198328,-3.45682824e-07,0,  !- X,Y,Z ==> Vertex 3 {m}
    23.198328,16.4592,0;  !- X,Y,Z ==> Vertex 4 {m}

  BuildingSurface:Detailed,
    EL1 North Wall (G.E3.E5),!- Name
    Wall,                    !- Surface Type
    Exterior Wall,           !- Construction Name
    Office EL1 East Perim Spc (G.E3),  !- Zone Name
    ,                        !- Space Name
    Outdoors,                !- Outside Boundary Condition
    ,                        !- Outside Boundary Condition Object
    SunExposed,              !- Sun Exposure
    WindExposed,             !- Wind Exposure
    ,                        !- View Factor to Ground
    ,                        !- Number of Vertices
    92.79636,16.4592,3.2004,  !- X,Y,Z ==> Vertex 1 {m}
    92.79636,16.4592,0,  !- X,Y,Z ==> Vertex 2 {m}
    69.598032,16.4592,0,  !- X,Y,Z ==> Vertex 3 {m}
    69.598032,16.4592,3.2004;  !- X,Y,Z ==> Vertex 4 {m}

  BuildingSurface:Detailed,
    EL1 North Wall (G.E6.E11),  !- Name
    Wall,                    !- Surface Type
    Exterior Wall,           !- Construction Name
    EL1 East Perim Plnm (G.E6),  !- Zone Name
    ,                        !- Space Name
    Outdoors,                !- Outside Boundary Condition
    ,                        !- Outside Boundary Condition Object
    SunExposed,              !- Sun Exposure
    WindExposed,             !- Wind Exposure
    ,                        !- View Factor to Ground
    ,                        !- Number of Vertices
    92.79636,16.4592,3.6576,  !- X,Y,Z ==> Vertex 1 {m}
    92.79636,16.4592,3.2004,  !- X,Y,Z ==> Vertex 2 {m}
    69.598032,16.4592,3.2004,  !- X,Y,Z ==> Vertex 3 {m}
    69.598032,16.4592,3.6576;  !- X,Y,Z ==> Vertex 4 {m}

  BuildingSurface:Detailed,
    EL1 North Wall (G.W1.E2),!- Name
    Wall,                    !- Surface Type
    Exterior Wall,           !- Construction Name
    Laundry EL1 West Perim Spc (G.W1),  !- Zone Name
    ,                        !- Space Name
    Outdoors,                !- Outside Boundary Condition
    ,                        !- Outside Boundary Condition Object
    SunExposed,              !- Sun Exposure
    WindExposed,             !- Wind Exposure
    ,                        !- View Factor to Ground
    ,                        !- Number of Vertices
    23.19829752,16.4592,3.2004,  !- X,Y,Z ==> Vertex 1 {m}
    23.19829752,16.4592,0,  !- X,Y,Z ==> Vertex 2 {m}
    0,16.4592,0,  !- X,Y,Z ==> Vertex 3 {m}
    0,16.4592,3.2004;  !- X,Y,Z ==> Vertex 4 {m}

  BuildingSurface:Detailed,
    EL1 North Wall (G.W2.E4),!- Name
    Wall,                    !- Surface Type
    Exterior Wall,           !- Construction Name
    Lobby EL1 West Perim Spc (G.W2),  !- Zone Name
    ,                        !- Space Name
    Outdoors,                !- Outside Boundary Condition
    ,                        !- Outside Boundary Condition Object
    SunExposed,              !- Sun Exposure
    WindExposed,             !- Wind Exposure
    ,                        !- View Factor to Ground
    ,                        !- Number of Vertices
    69.598032,16.4592,3.2004,  !- X,Y,Z ==> Vertex 1 {m}
    69.598032,16.4592,0,  !- X,Y,Z ==> Vertex 2 {m}
    23.198328,16.4592,0,  !- X,Y,Z ==> Vertex 3 {m}
    23.198328,16.4592,3.2004;  !- X,Y,Z ==> Vertex 4 {m}

  BuildingSurface:Detailed,
    EL1 North Wall (G.W4.E8),!- Name
    Wall,                    !- Surface Type
    Exterior Wall,           !- Construction Name
    EL1 West Perim Plnm (G.W4),  !- Zone Name
    ,                        !- Space Name
    Outdoors,                !- Outside Boundary Condition
    ,                        !- Outside Boundary Condition Object
    SunExposed,              !- Sun Exposure
    WindExposed,             !- Wind Exposure
    ,                        !- View Factor to Ground
    ,                        !- Number of Vertices
    23.19829752,16.4592,3.6576,  !- X,Y,Z ==> Vertex 1 {m}
    23.19829752,16.4592,3.2004,  !- X,Y,Z ==> Vertex 2 {m}
    0,16.4592,3.2004,  !- X,Y,Z ==> Vertex 3 {m}
    0,16.4592,3.6576;  !- X,Y,Z ==> Vertex 4 {m}

  BuildingSurface:Detailed,
    EL1 North Wall (G.W5.E10),  !- Name
    Wall,                    !- Surface Type
    Exterior Wall,           !- Construction Name
    EL1 West Perim Plnm (G.W5),  !- Zone Name
    ,                        !- Space Name
    Outdoors,                !- Outside Boundary Condition
    ,                        !- Outside Boundary Condition Object
    SunExposed,              !- Sun Exposure
    WindExposed,             !- Wind Exposure
    ,                        !- View Factor to Ground
    ,                        !- Number of Vertices
    69.598032,16.4592,3.6576,  !- X,Y,Z ==> Vertex 1 {m}
    69.598032,16.4592,3.2004,  !- X,Y,Z ==> Vertex 2 {m}
    23.198328,16.4592,3.2004,  !- X,Y,Z ==> Vertex 3 {m}
    23.198328,16.4592,3.6576;  !- X,Y,Z ==> Vertex 4 {m}

  BuildingSurface:Detailed,
    EL1 South Wall (G.E3.E6),!- Name
    Wall,                    !- Surface Type
    Exterior Wall,           !- Construction Name
    Office EL1 East Perim Spc (G.E3),  !- Zone Name
    ,                        !- Space Name
    Outdoors,                !- Outside Boundary Condition
    ,                        !- Outside Boundary Condition Object
    SunExposed,              !- Sun Exposure
    WindExposed,             !- Wind Exposure
    ,                        !- View Factor to Ground
    ,                        !- Number of Vertices
    69.598032,-1.136465088e-14,3.2004,  !- X,Y,Z ==> Vertex 1 {m}
    69.598032,-1.136465088e-14,0,  !- X,Y,Z ==> Vertex 2 {m}
    92.79636,-1.136465088e-14,0,  !- X,Y,Z ==> Vertex 3 {m}
    92.79636,-1.136465088e-14,3.2004;  !- X,Y,Z ==> Vertex 4 {m}

  BuildingSurface:Detailed,
    EL1 South Wall (G.E6.E12),  !- Name
    Wall,                    !- Surface Type
    Exterior Wall,           !- Construction Name
    EL1 East Perim Plnm (G.E6),  !- Zone Name
    ,                        !- Space Name
    Outdoors,                !- Outside Boundary Condition
    ,                        !- Outside Boundary Condition Object
    SunExposed,              !- Sun Exposure
    WindExposed,             !- Wind Exposure
    ,                        !- View Factor to Ground
    ,                        !- Number of Vertices
    69.598032,-1.136465088e-14,3.6576,  !- X,Y,Z ==> Vertex 1 {m}
    69.598032,-1.136465088e-14,3.2004,  !- X,Y,Z ==> Vertex 2 {m}
    92.79636,-1.136465088e-14,3.2004,  !- X,Y,Z ==> Vertex 3 {m}
    92.79636,-1.136465088e-14,3.6576;  !- X,Y,Z ==> Vertex 4 {m}

  BuildingSurface:Detailed,
    EL1 South Wall (G.W1.E1),!- Name
    Wall,                    !- Surface Type
    Exterior Wall,           !- Construction Name
    Laundry EL1 West Perim Spc (G.W1),  !- Zone Name
    ,                        !- Space Name
    Outdoors,                !- Outside Boundary Condition
    ,                        !- Outside Boundary Condition Object
    SunExposed,              !- Sun Exposure
    WindExposed,             !- Wind Exposure
    ,                        !- View Factor to Ground
    ,                        !- Number of Vertices
    0,-3.45682824e-07,3.2004,  !- X,Y,Z ==> Vertex 1 {m}
    0,-3.45682824e-07,0,  !- X,Y,Z ==> Vertex 2 {m}
    23.19829752,-3.45682824e-07,0,  !- X,Y,Z ==> Vertex 3 {m}
    23.19829752,-3.45682824e-07,3.2004;  !- X,Y,Z ==> Vertex 4 {m}

  BuildingSurface:Detailed,
    EL1 South Wall (G.W2.E3),!- Name
    Wall,                    !- Surface Type
    Exterior Wall,           !- Construction Name
    Lobby EL1 West Perim Spc (G.W2),  !- Zone Name
    ,                        !- Space Name
    Outdoors,                !- Outside Boundary Condition
    ,                        !- Outside Boundary Condition Object
    SunExposed,              !- Sun Exposure
    WindExposed,             !- Wind Exposure
    ,                        !- View Factor to Ground
    ,                        !- Number of Vertices
    23.198328,-3.45682824e-07,3.2004,  !- X,Y,Z ==> Vertex 1 {m}
    23.198328,-3.45682824e-07,0,  !- X,Y,Z ==> Vertex 2 {m}
    69.598032,-3.45682824e-07,0,  !- X,Y,Z ==> Vertex 3 {m}
    69.598032,-3.45682824e-07,3.2004;  !- X,Y,Z ==> Vertex 4 {m}

  BuildingSurface:Detailed,
    EL1 South Wall (G.W4.E7),!- Name
    Wall,                    !- Surface Type
    Exterior Wall,           !- Construction Name
    EL1 West Perim Plnm (G.W4),  !- Zone Name
    ,                        !- Space Name
    Outdoors,                !- Outside Boundary Condition
    ,                        !- Outside Boundary Condition Object
    SunExposed,              !- Sun Exposure
    WindExposed,             !- Wind Exposure
    ,                        !- View Factor to Ground
    ,                        !- Number of Vertices
    0,-3.45682824e-07,3.6576,  !- X,Y,Z ==> Vertex 1 {m}
    0,-3.45682824e-07,3.2004,  !- X,Y,Z ==> Vertex 2 {m}
    23.19829752,-3.45682824e-07,3.2004,  !- X,Y,Z ==> Vertex 3 {m}
    23.19829752,-3.45682824e-07,3.6576;  !- X,Y,Z ==> Vertex 4 {m}

  BuildingSurface:Detailed,
    EL1 South Wall (G.W5.E9),!- Name
    Wall,                    !- Surface Type
    Exterior Wall,           !- Construction Name
    EL1 West Perim Plnm (G.W5),  !- Zone Name
    ,                        !- Space Name
    Outdoors,                !- Outside Boundary Condition
    ,                        !- Outside Boundary Condition Object
    SunExposed,              !- Sun Exposure
    WindExposed,             !- Wind Exposure
    ,                        !- View Factor to Ground
    ,                        !- Number of Vertices
    23.198328,-3.45682824e-07,3.6576,  !- X,Y,Z ==> Vertex 1 {m}
    23.198328,-3.45682824e-07,3.2004,  !- X,Y,Z ==> Vertex 2 {m}
    69.598032,-3.45682824e-07,3.2004,  !- X,Y,Z ==> Vertex 3 {m}
    69.598032,-3.45682824e-07,3.6576;  !- X,Y,Z ==> Vertex 4 {m}

  BuildingSurface:Detailed,
    EL1 West Perim Plnm (G.W4) - Wall 270_a,  !- Name
    Wall,                    !- Surface Type
    Interior Wall,           !- Construction Name
    EL1 West Perim Plnm (G.W4),  !- Zone Name
    ,                        !- Space Name
    Surface,                 !- Outside Boundary Condition
    EL1 West Perim Plnm (G.W4) - Wall 270_a Reversed,  !- Outside Boundary Condition Object
    NoSun,                   !- Sun Exposure
    NoWind,                  !- Wind Exposure
    ,                        !- View Factor to Ground
    ,                        !- Number of Vertices
    0,16.4592,3.6576,  !- X,Y,Z ==> Vertex 1 {m}
    0,16.4592,3.2004,  !- X,Y,Z ==> Vertex 2 {m}
    0,9.10129752,3.2004,  !- X,Y,Z ==> Vertex 3 {m}
    0,9.10129752,3.6576;  !- X,Y,Z ==> Vertex 4 {m}

  BuildingSurface:Detailed,
    EL1 West Perim Plnm (G.W4) - Wall 270_a Reversed,  !- Name
    Wall,                    !- Surface Type
    Interior Wall,           !- Construction Name
    EL2 North Perim Plnm (G.N5),  !- Zone Name
    ,                        !- Space Name
    Surface,                 !- Outside Boundary Condition
    EL1 West Perim Plnm (G.W4) - Wall 270_a,  !- Outside Boundary Condition Object
    NoSun,                   !- Sun Exposure
    NoWind,                  !- Wind Exposure
    ,                        !- View Factor to Ground
    ,                        !- Number of Vertices
    0,9.10129752,3.6576,  !- X,Y,Z ==> Vertex 1 {m}
    0,9.10129752,3.2004,  !- X,Y,Z ==> Vertex 2 {m}
    0,16.4592,3.2004,  !- X,Y,Z ==> Vertex 3 {m}
    0,16.4592,3.6576;  !- X,Y,Z ==> Vertex 4 {m}

  BuildingSurface:Detailed,
    EL1 West Perim Plnm (G.W4) - Wall 270_b,  !- Name
    Wall,                    !- Surface Type
    Interior Wall,           !- Construction Name
    EL1 West Perim Plnm (G.W4),  !- Zone Name
    ,                        !- Space Name
    Surface,                 !- Outside Boundary Condition
    EL1 West Perim Plnm (G.W4) - Wall 270_b Reversed,  !- Outside Boundary Condition Object
    NoSun,                   !- Sun Exposure
    NoWind,                  !- Wind Exposure
    ,                        !- View Factor to Ground
    ,                        !- Number of Vertices
    0,9.10129752,3.6576,  !- X,Y,Z ==> Vertex 1 {m}
    0,9.10129752,3.2004,  !- X,Y,Z ==> Vertex 2 {m}
    0,4.39518552,3.2004,  !- X,Y,Z ==> Vertex 3 {m}
    0,4.39518552,3.6576;  !- X,Y,Z ==> Vertex 4 {m}

  BuildingSurface:Detailed,
    EL1 West Perim Plnm (G.W4) - Wall 270_b Reversed,  !- Name
    Wall,                    !- Surface Type
    Interior Wall,           !- Construction Name
    EL2 West Perim Plnm (G.W6),  !- Zone Name
    ,                        !- Space Name
    Surface,                 !- Outside Boundary Condition
    EL1 West Perim Plnm (G.W4) - Wall 270_b,  !- Outside Boundary Condition Object
    NoSun,                   !- Sun Exposure
    NoWind,                  !- Wind Exposure
    ,                        !- View Factor to Ground
    ,                        !- Number of Vertices
    0,4.39518552,3.6576,  !- X,Y,Z ==> Vertex 1 {m}
    0,4.39518552,3.2004,  !- X,Y,Z ==> Vertex 2 {m}
    0,9.10129752,3.2004,  !- X,Y,Z ==> Vertex 3 {m}
    0,9.10129752,3.6576;  !- X,Y,Z ==> Vertex 4 {m}

  BuildingSurface:Detailed,
    EL1 West Perim Spc (G.W1) - Wall 270_a,  !- Name
    Wall,                    !- Surface Type
    Interior Wall,           !- Construction Name
    Laundry EL1 West Perim Spc (G.W1),  !- Zone Name
    ,                        !- Space Name
    Surface,                 !- Outside Boundary Condition
    EL1 West Perim Spc (G.W1) - Wall 270_a Reversed,  !- Outside Boundary Condition Object
    NoSun,                   !- Sun Exposure
    NoWind,                  !- Wind Exposure
    ,                        !- View Factor to Ground
    ,                        !- Number of Vertices
    0,4.39518552,3.2004,  !- X,Y,Z ==> Vertex 1 {m}
    0,4.39518552,0,  !- X,Y,Z ==> Vertex 2 {m}
    0,-3.45682824e-07,0,  !- X,Y,Z ==> Vertex 3 {m}
    0,-3.45682824e-07,3.2004;  !- X,Y,Z ==> Vertex 4 {m}

  BuildingSurface:Detailed,
    EL1 West Perim Spc (G.W1) - Wall 270_a Reversed,  !- Name
    Wall,                    !- Surface Type
    Interior Wall,           !- Construction Name
    Kitchen EL2 South Perim Spc (G.S1),  !- Zone Name
    ,                        !- Space Name
    Surface,                 !- Outside Boundary Condition
    EL1 West Perim Spc (G.W1) - Wall 270_a,  !- Outside Boundary Condition Object
    NoSun,                   !- Sun Exposure
    NoWind,                  !- Wind Exposure
    ,                        !- View Factor to Ground
    ,                        !- Number of Vertices
    0,-3.45682824e-07,3.2004,  !- X,Y,Z ==> Vertex 1 {m}
    0,-3.45682824e-07,0,  !- X,Y,Z ==> Vertex 2 {m}
    0,4.39518552,0,  !- X,Y,Z ==> Vertex 3 {m}
    0,4.39518552,3.2004;  !- X,Y,Z ==> Vertex 4 {m}

  BuildingSurface:Detailed,
    EL1 West Perim Spc (G.W1) - Wall 270_b,  !- Name
    Wall,                    !- Surface Type
    Interior Wall,           !- Construction Name
    Laundry EL1 West Perim Spc (G.W1),  !- Zone Name
    ,                        !- Space Name
    Surface,                 !- Outside Boundary Condition
    EL1 West Perim Spc (G.W1) - Wall 270_b Reversed,  !- Outside Boundary Condition Object
    NoSun,                   !- Sun Exposure
    NoWind,                  !- Wind Exposure
    ,                        !- View Factor to Ground
    ,                        !- Number of Vertices
    0,16.4592,3.2004,  !- X,Y,Z ==> Vertex 1 {m}
    0,16.4592,0,  !- X,Y,Z ==> Vertex 2 {m}
    0,9.10129752,0,  !- X,Y,Z ==> Vertex 3 {m}
    0,9.10129752,3.2004;  !- X,Y,Z ==> Vertex 4 {m}

  BuildingSurface:Detailed,
    EL1 West Perim Spc (G.W1) - Wall 270_b Reversed,  !- Name
    Wall,                    !- Surface Type
    Interior Wall,           !- Construction Name
    BarCasino EL2 North Perim Spc (G.N2),  !- Zone Name
    ,                        !- Space Name
    Surface,                 !- Outside Boundary Condition
    EL1 West Perim Spc (G.W1) - Wall 270_b,  !- Outside Boundary Condition Object
    NoSun,                   !- Sun Exposure
    NoWind,                  !- Wind Exposure
    ,                        !- View Factor to Ground
    ,                        !- Number of Vertices
    0,9.10129752,3.2004,  !- X,Y,Z ==> Vertex 1 {m}
    0,9.10129752,0,  !- X,Y,Z ==> Vertex 2 {m}
    0,16.4592,0,  !- X,Y,Z ==> Vertex 3 {m}
    0,16.4592,3.2004;  !- X,Y,Z ==> Vertex 4 {m}

  BuildingSurface:Detailed,
    EL1 West Wall (G.W1.I2), !- Name
    Wall,                    !- Surface Type
    Interior Wall,           !- Construction Name
    Laundry EL1 West Perim Spc (G.W1),  !- Zone Name
    ,                        !- Space Name
    Surface,                 !- Outside Boundary Condition
    EL1 West Wall (G.W1.I2) Reversed,  !- Outside Boundary Condition Object
    NoSun,                   !- Sun Exposure
    NoWind,                  !- Wind Exposure
    ,                        !- View Factor to Ground
    ,                        !- Number of Vertices
    0,9.10129752,3.2004,  !- X,Y,Z ==> Vertex 1 {m}
    0,9.10129752,0,  !- X,Y,Z ==> Vertex 2 {m}
    0,4.39518552,0,  !- X,Y,Z ==> Vertex 3 {m}
    0,4.39518552,3.2004;  !- X,Y,Z ==> Vertex 4 {m}

  BuildingSurface:Detailed,
    EL1 West Wall (G.W1.I2) Reversed,  !- Name
    Wall,                    !- Surface Type
    Interior Wall,           !- Construction Name
    Dining EL2 West Perim Spc (G.W3),  !- Zone Name
    ,                        !- Space Name
    Surface,                 !- Outside Boundary Condition
    EL1 West Wall (G.W1.I2), !- Outside Boundary Condition Object
    NoSun,                   !- Sun Exposure
    NoWind,                  !- Wind Exposure
    ,                        !- View Factor to Ground
    ,                        !- Number of Vertices
    0,4.39518552,3.2004,  !- X,Y,Z ==> Vertex 1 {m}
    0,4.39518552,0,  !- X,Y,Z ==> Vertex 2 {m}
    0,9.10129752,0,  !- X,Y,Z ==> Vertex 3 {m}
    0,9.10129752,3.2004;  !- X,Y,Z ==> Vertex 4 {m}

  BuildingSurface:Detailed,
    EL1 West Wall (G.W4.I9), !- Name
    Wall,                    !- Surface Type
    Interior Wall,           !- Construction Name
    EL1 West Perim Plnm (G.W4),  !- Zone Name
    ,                        !- Space Name
    Surface,                 !- Outside Boundary Condition
    EL1 West Wall (G.W4.I9) Reversed,  !- Outside Boundary Condition Object
    NoSun,                   !- Sun Exposure
    NoWind,                  !- Wind Exposure
    ,                        !- View Factor to Ground
    ,                        !- Number of Vertices
    0,4.39518552,3.6576,  !- X,Y,Z ==> Vertex 1 {m}
    0,4.39518552,3.2004,  !- X,Y,Z ==> Vertex 2 {m}
    0,-3.45682824e-07,3.2004,  !- X,Y,Z ==> Vertex 3 {m}
    0,-3.45682824e-07,3.6576;  !- X,Y,Z ==> Vertex 4 {m}

  BuildingSurface:Detailed,
    EL1 West Wall (G.W4.I9) Reversed,  !- Name
    Wall,                    !- Surface Type
    Interior Wall,           !- Construction Name
    EL2 South Perim Plnm (G.S4),  !- Zone Name
    ,                        !- Space Name
    Surface,                 !- Outside Boundary Condition
    EL1 West Wall (G.W4.I9), !- Outside Boundary Condition Object
    NoSun,                   !- Sun Exposure
    NoWind,                  !- Wind Exposure
    ,                        !- View Factor to Ground
    ,                        !- Number of Vertices
    0,-3.45682824e-07,3.6576,  !- X,Y,Z ==> Vertex 1 {m}
    0,-3.45682824e-07,3.2004,  !- X,Y,Z ==> Vertex 2 {m}
    0,4.39518552,3.2004,  !- X,Y,Z ==> Vertex 3 {m}
    0,4.39518552,3.6576;  !- X,Y,Z ==> Vertex 4 {m}

  BuildingSurface:Detailed,
    EL2 Ceiling (G.N2.I6)-mirror,  !- Name
    Floor,                   !- Surface Type
    Interior Floor,          !- Construction Name
    EL2 North Perim Plnm (G.N5),  !- Zone Name
    ,                        !- Space Name
    Surface,                 !- Outside Boundary Condition
    EL2 Ceiling (G.N2.I6)-mirror Reversed,  !- Outside Boundary Condition Object
    NoSun,                   !- Sun Exposure
    NoWind,                  !- Wind Exposure
    ,                        !- View Factor to Ground
    ,                        !- Number of Vertices
    -2.000000064e-05,16.4592,3.2004,  !- X,Y,Z ==> Vertex 1 {m}
    -2.000000064e-05,9.10129752,3.2004,  !- X,Y,Z ==> Vertex 2 {m}
    -7.89432,9.10129752,3.2004,  !- X,Y,Z ==> Vertex 3 {m}
    -7.89432,16.4592,3.2004;  !- X,Y,Z ==> Vertex 4 {m}

  BuildingSurface:Detailed,
    EL2 Ceiling (G.N2.I6)-mirror Reversed,  !- Name
    Ceiling,                 !- Surface Type
    Radiant Interior Ceiling,!- Construction Name
    BarCasino EL2 North Perim Spc (G.N2),  !- Zone Name
    ,                        !- Space Name
    Surface,                 !- Outside Boundary Condition
    EL2 Ceiling (G.N2.I6)-mirror,  !- Outside Boundary Condition Object
    NoSun,                   !- Sun Exposure
    NoWind,                  !- Wind Exposure
    ,                        !- View Factor to Ground
    ,                        !- Number of Vertices
    -2.000000064e-05,9.10129752,3.2004,  !- X,Y,Z ==> Vertex 1 {m}
    -2.000000064e-05,16.4592,3.2004,  !- X,Y,Z ==> Vertex 2 {m}
    -7.89432,16.4592,3.2004,  !- X,Y,Z ==> Vertex 3 {m}
    -7.89432,9.10129752,3.2004;  !- X,Y,Z ==> Vertex 4 {m}

  BuildingSurface:Detailed,
    EL2 Ceiling (G.S1.I3)-mirror,  !- Name
    Floor,                   !- Surface Type
    Interior Floor,          !- Construction Name
    EL2 South Perim Plnm (G.S4),  !- Zone Name
    ,                        !- Space Name
    Surface,                 !- Outside Boundary Condition
    EL2 Ceiling (G.S1.I3)-mirror Reversed,  !- Outside Boundary Condition Object
    NoSun,                   !- Sun Exposure
    NoWind,                  !- Wind Exposure
    ,                        !- View Factor to Ground
    ,                        !- Number of Vertices
    -2.000000064e-05,4.39518552,3.2004,  !- X,Y,Z ==> Vertex 1 {m}
    -2.000000064e-05,-1.17634512e-07,3.2004,  !- X,Y,Z ==> Vertex 2 {m}
    -7.89432,-1.17634512e-07,3.2004,  !- X,Y,Z ==> Vertex 3 {m}
    -7.89432,4.39518552,3.2004;  !- X,Y,Z ==> Vertex 4 {m}

  BuildingSurface:Detailed,
    EL2 Ceiling (G.S1.I3)-mirror Reversed,  !- Name
    Ceiling,                 !- Surface Type
    Radiant Interior Ceiling,!- Construction Name
    Kitchen EL2 South Perim Spc (G.S1),  !- Zone Name
    ,                        !- Space Name
    Surface,                 !- Outside Boundary Condition
    EL2 Ceiling (G.S1.I3)-mirror,  !- Outside Boundary Condition Object
    NoSun,                   !- Sun Exposure
    NoWind,                  !- Wind Exposure
    ,                        !- View Factor to Ground
    ,                        !- Number of Vertices
    -2.000000064e-05,-1.17634512e-07,3.2004,  !- X,Y,Z ==> Vertex 1 {m}
    -2.000000064e-05,4.39518552,3.2004,  !- X,Y,Z ==> Vertex 2 {m}
    -7.89432,4.39518552,3.2004,  !- X,Y,Z ==> Vertex 3 {m}
    -7.89432,-1.17634512e-07,3.2004;  !- X,Y,Z ==> Vertex 4 {m}

  BuildingSurface:Detailed,
    EL2 Ceiling (G.W3.I8)-mirror,  !- Name
    Floor,                   !- Surface Type
    Interior Floor,          !- Construction Name
    EL2 West Perim Plnm (G.W6),  !- Zone Name
    ,                        !- Space Name
    Surface,                 !- Outside Boundary Condition
    EL2 Ceiling (G.W3.I8)-mirror Reversed,  !- Outside Boundary Condition Object
    NoSun,                   !- Sun Exposure
    NoWind,                  !- Wind Exposure
    ,                        !- View Factor to Ground
    ,                        !- Number of Vertices
    -2.000000064e-05,9.10129752,3.2004,  !- X,Y,Z ==> Vertex 1 {m}
    -2.000000064e-05,4.39518552,3.2004,  !- X,Y,Z ==> Vertex 2 {m}
    -7.89432,4.39518552,3.2004,  !- X,Y,Z ==> Vertex 3 {m}
    -7.89432,9.10129752,3.2004;  !- X,Y,Z ==> Vertex 4 {m}

  BuildingSurface:Detailed,
    EL2 Ceiling (G.W3.I8)-mirror Reversed,  !- Name
    Ceiling,                 !- Surface Type
    Radiant Interior Ceiling,!- Construction Name
    Dining EL2 West Perim Spc (G.W3),  !- Zone Name
    ,                        !- Space Name
    Surface,                 !- Outside Boundary Condition
    EL2 Ceiling (G.W3.I8)-mirror,  !- Outside Boundary Condition Object
    NoSun,                   !- Sun Exposure
    NoWind,                  !- Wind Exposure
    ,                        !- View Factor to Ground
    ,                        !- Number of Vertices
    -2.000000064e-05,4.39518552,3.2004,  !- X,Y,Z ==> Vertex 1 {m}
    -2.000000064e-05,9.10129752,3.2004,  !- X,Y,Z ==> Vertex 2 {m}
    -7.89432,9.10129752,3.2004,  !- X,Y,Z ==> Vertex 3 {m}
    -7.89432,4.39518552,3.2004;  !- X,Y,Z ==> Vertex 4 {m}

  BuildingSurface:Detailed,
    EL2 Flr (G.N2.U2),       !- Name
    Floor,                   !- Surface Type
    EL2 Flr (G.N2.U2) SlabOnOrBelowGradeF073,  !- Construction Name
    BarCasino EL2 North Perim Spc (G.N2),  !- Zone Name
    ,                        !- Space Name
    GroundFCfactorMethod,    !- Outside Boundary Condition
    ,                        !- Outside Boundary Condition Object
    NoSun,                   !- Sun Exposure
    NoWind,                  !- Wind Exposure
    ,                        !- View Factor to Ground
    ,                        !- Number of Vertices
    -2.000000064e-05,16.4592,0,  !- X,Y,Z ==> Vertex 1 {m}
    -2.000000064e-05,9.10129752,0,  !- X,Y,Z ==> Vertex 2 {m}
    -7.89432,9.10129752,0,  !- X,Y,Z ==> Vertex 3 {m}
    -7.89432,16.4592,0;  !- X,Y,Z ==> Vertex 4 {m}

  BuildingSurface:Detailed,
    EL2 Flr (G.S1.U1),       !- Name
    Floor,                   !- Surface Type
    EL2 Flr (G.S1.U1) SlabOnOrBelowGradeF073,  !- Construction Name
    Kitchen EL2 South Perim Spc (G.S1),  !- Zone Name
    ,                        !- Space Name
    GroundFCfactorMethod,    !- Outside Boundary Condition
    ,                        !- Outside Boundary Condition Object
    NoSun,                   !- Sun Exposure
    NoWind,                  !- Wind Exposure
    ,                        !- View Factor to Ground
    ,                        !- Number of Vertices
    -2.000000064e-05,4.39518552,0,  !- X,Y,Z ==> Vertex 1 {m}
    -2.000000064e-05,-1.17634512e-07,0,  !- X,Y,Z ==> Vertex 2 {m}
    -7.89432,-1.17634512e-07,0,  !- X,Y,Z ==> Vertex 3 {m}
    -7.89432,4.39518552,0;  !- X,Y,Z ==> Vertex 4 {m}

  BuildingSurface:Detailed,
    EL2 Flr (G.W3.U3),       !- Name
    Floor,                   !- Surface Type
    EL2 Flr (G.W3.U3) SlabOnOrBelowGradeF073,  !- Construction Name
    Dining EL2 West Perim Spc (G.W3),  !- Zone Name
    ,                        !- Space Name
    GroundFCfactorMethod,    !- Outside Boundary Condition
    ,                        !- Outside Boundary Condition Object
    NoSun,                   !- Sun Exposure
    NoWind,                  !- Wind Exposure
    ,                        !- View Factor to Ground
    ,                        !- Number of Vertices
    -2.000000064e-05,9.10129752,0,  !- X,Y,Z ==> Vertex 1 {m}
    -2.000000064e-05,4.39518552,0,  !- X,Y,Z ==> Vertex 2 {m}
    -7.89432,4.39518552,0,  !- X,Y,Z ==> Vertex 3 {m}
    -7.89432,9.10129752,0;  !- X,Y,Z ==> Vertex 4 {m}

  BuildingSurface:Detailed,
    EL2 North Wall (G.N2.E3),!- Name
    Wall,                    !- Surface Type
    Exterior Wall,           !- Construction Name
    BarCasino EL2 North Perim Spc (G.N2),  !- Zone Name
    ,                        !- Space Name
    Outdoors,                !- Outside Boundary Condition
    ,                        !- Outside Boundary Condition Object
    SunExposed,              !- Sun Exposure
    WindExposed,             !- Wind Exposure
    ,                        !- View Factor to Ground
    ,                        !- Number of Vertices
    -2.000000064e-05,16.4592,3.2004,  !- X,Y,Z ==> Vertex 1 {m}
    -2.000000064e-05,16.4592,0,  !- X,Y,Z ==> Vertex 2 {m}
    -7.89432,16.4592,0,  !- X,Y,Z ==> Vertex 3 {m}
    -7.89432,16.4592,3.2004;  !- X,Y,Z ==> Vertex 4 {m}

  BuildingSurface:Detailed,
    EL2 North Wall (G.N5.E9),!- Name
    Wall,                    !- Surface Type
    Exterior Wall,           !- Construction Name
    EL2 North Perim Plnm (G.N5),  !- Zone Name
    ,                        !- Space Name
    Outdoors,                !- Outside Boundary Condition
    ,                        !- Outside Boundary Condition Object
    SunExposed,              !- Sun Exposure
    WindExposed,             !- Wind Exposure
    ,                        !- View Factor to Ground
    ,                        !- Number of Vertices
    -2.000000064e-05,16.4592,3.6576,  !- X,Y,Z ==> Vertex 1 {m}
    -2.000000064e-05,16.4592,3.2004,  !- X,Y,Z ==> Vertex 2 {m}
    -7.89432,16.4592,3.2004,  !- X,Y,Z ==> Vertex 3 {m}
    -7.89432,16.4592,3.6576;  !- X,Y,Z ==> Vertex 4 {m}

  BuildingSurface:Detailed,
    EL2 North Wall (G.S1.I2),!- Name
    Wall,                    !- Surface Type
    Interior Wall,           !- Construction Name
    Kitchen EL2 South Perim Spc (G.S1),  !- Zone Name
    ,                        !- Space Name
    Surface,                 !- Outside Boundary Condition
    EL2 North Wall (G.S1.I2) Reversed,  !- Outside Boundary Condition Object
    NoSun,                   !- Sun Exposure
    NoWind,                  !- Wind Exposure
    ,                        !- View Factor to Ground
    ,                        !- Number of Vertices
    -2.000000064e-05,4.39518552,3.2004,  !- X,Y,Z ==> Vertex 1 {m}
    -2.000000064e-05,4.39518552,0,  !- X,Y,Z ==> Vertex 2 {m}
    -7.89432,4.39518552,0,  !- X,Y,Z ==> Vertex 3 {m}
    -7.89432,4.39518552,3.2004;  !- X,Y,Z ==> Vertex 4 {m}

  BuildingSurface:Detailed,
    EL2 North Wall (G.S1.I2) Reversed,  !- Name
    Wall,                    !- Surface Type
    Interior Wall,           !- Construction Name
    Dining EL2 West Perim Spc (G.W3),  !- Zone Name
    ,                        !- Space Name
    Surface,                 !- Outside Boundary Condition
    EL2 North Wall (G.S1.I2),!- Outside Boundary Condition Object
    NoSun,                   !- Sun Exposure
    NoWind,                  !- Wind Exposure
    ,                        !- View Factor to Ground
    ,                        !- Number of Vertices
    -7.89432,4.39518552,3.2004,  !- X,Y,Z ==> Vertex 1 {m}
    -7.89432,4.39518552,0,  !- X,Y,Z ==> Vertex 2 {m}
    -2.000000064e-05,4.39518552,0,  !- X,Y,Z ==> Vertex 3 {m}
    -2.000000064e-05,4.39518552,3.2004;  !- X,Y,Z ==> Vertex 4 {m}

  BuildingSurface:Detailed,
    EL2 North Wall (G.S4.I10),  !- Name
    Wall,                    !- Surface Type
    Interior Wall,           !- Construction Name
    EL2 South Perim Plnm (G.S4),  !- Zone Name
    ,                        !- Space Name
    Surface,                 !- Outside Boundary Condition
    EL2 North Wall (G.S4.I10) Reversed,  !- Outside Boundary Condition Object
    NoSun,                   !- Sun Exposure
    NoWind,                  !- Wind Exposure
    ,                        !- View Factor to Ground
    ,                        !- Number of Vertices
    -2.000000064e-05,4.39518552,3.6576,  !- X,Y,Z ==> Vertex 1 {m}
    -2.000000064e-05,4.39518552,3.2004,  !- X,Y,Z ==> Vertex 2 {m}
    -7.89432,4.39518552,3.2004,  !- X,Y,Z ==> Vertex 3 {m}
    -7.89432,4.39518552,3.6576;  !- X,Y,Z ==> Vertex 4 {m}

  BuildingSurface:Detailed,
    EL2 North Wall (G.S4.I10) Reversed,  !- Name
    Wall,                    !- Surface Type
    Interior Wall,           !- Construction Name
    EL2 West Perim Plnm (G.W6),  !- Zone Name
    ,                        !- Space Name
    Surface,                 !- Outside Boundary Condition
    EL2 North Wall (G.S4.I10),  !- Outside Boundary Condition Object
    NoSun,                   !- Sun Exposure
    NoWind,                  !- Wind Exposure
    ,                        !- View Factor to Ground
    ,                        !- Number of Vertices
    -7.89432,4.39518552,3.6576,  !- X,Y,Z ==> Vertex 1 {m}
    -7.89432,4.39518552,3.2004,  !- X,Y,Z ==> Vertex 2 {m}
    -2.000000064e-05,4.39518552,3.2004,  !- X,Y,Z ==> Vertex 3 {m}
    -2.000000064e-05,4.39518552,3.6576;  !- X,Y,Z ==> Vertex 4 {m}

  BuildingSurface:Detailed,
    EL2 Roof (G.N5.E11),     !- Name
    Roof,                    !- Surface Type
    Exterior Roof,           !- Construction Name
    EL2 North Perim Plnm (G.N5),  !- Zone Name
    ,                        !- Space Name
    Outdoors,                !- Outside Boundary Condition
    ,                        !- Outside Boundary Condition Object
    SunExposed,              !- Sun Exposure
    WindExposed,             !- Wind Exposure
    ,                        !- View Factor to Ground
    ,                        !- Number of Vertices
    -2.000000064e-05,9.10129752,3.6576,  !- X,Y,Z ==> Vertex 1 {m}
    -2.000000064e-05,16.4592,3.6576,  !- X,Y,Z ==> Vertex 2 {m}
    -7.89432,16.4592,3.6576,  !- X,Y,Z ==> Vertex 3 {m}
    -7.89432,9.10129752,3.6576;  !- X,Y,Z ==> Vertex 4 {m}

  BuildingSurface:Detailed,
    EL2 Roof (G.S4.E8),      !- Name
    Roof,                    !- Surface Type
    Exterior Roof,           !- Construction Name
    EL2 South Perim Plnm (G.S4),  !- Zone Name
    ,                        !- Space Name
    Outdoors,                !- Outside Boundary Condition
    ,                        !- Outside Boundary Condition Object
    SunExposed,              !- Sun Exposure
    WindExposed,             !- Wind Exposure
    ,                        !- View Factor to Ground
    ,                        !- Number of Vertices
    -2.000000064e-05,-1.17634512e-07,3.6576,  !- X,Y,Z ==> Vertex 1 {m}
    -2.000000064e-05,4.39518552,3.6576,  !- X,Y,Z ==> Vertex 2 {m}
    -7.89432,4.39518552,3.6576,  !- X,Y,Z ==> Vertex 3 {m}
    -7.89432,-1.17634512e-07,3.6576;  !- X,Y,Z ==> Vertex 4 {m}

  BuildingSurface:Detailed,
    EL2 Roof (G.W6.E13),     !- Name
    Roof,                    !- Surface Type
    Exterior Roof,           !- Construction Name
    EL2 West Perim Plnm (G.W6),  !- Zone Name
    ,                        !- Space Name
    Outdoors,                !- Outside Boundary Condition
    ,                        !- Outside Boundary Condition Object
    SunExposed,              !- Sun Exposure
    WindExposed,             !- Wind Exposure
    ,                        !- View Factor to Ground
    ,                        !- Number of Vertices
    -2.000000064e-05,4.39518552,3.6576,  !- X,Y,Z ==> Vertex 1 {m}
    -2.000000064e-05,9.10129752,3.6576,  !- X,Y,Z ==> Vertex 2 {m}
    -7.89432,9.10129752,3.6576,  !- X,Y,Z ==> Vertex 3 {m}
    -7.89432,4.39518552,3.6576;  !- X,Y,Z ==> Vertex 4 {m}

  BuildingSurface:Detailed,
    EL2 South Wall (G.N2.I4),!- Name
    Wall,                    !- Surface Type
    Interior Wall,           !- Construction Name
    BarCasino EL2 North Perim Spc (G.N2),  !- Zone Name
    ,                        !- Space Name
    Surface,                 !- Outside Boundary Condition
    EL2 South Wall (G.N2.I4) Reversed,  !- Outside Boundary Condition Object
    NoSun,                   !- Sun Exposure
    NoWind,                  !- Wind Exposure
    ,                        !- View Factor to Ground
    ,                        !- Number of Vertices
    -7.89432,9.10129752,3.2004,  !- X,Y,Z ==> Vertex 1 {m}
    -7.89432,9.10129752,0,  !- X,Y,Z ==> Vertex 2 {m}
    -2.000000064e-05,9.10129752,0,  !- X,Y,Z ==> Vertex 3 {m}
    -2.000000064e-05,9.10129752,3.2004;  !- X,Y,Z ==> Vertex 4 {m}

  BuildingSurface:Detailed,
    EL2 South Wall (G.N2.I4) Reversed,  !- Name
    Wall,                    !- Surface Type
    Interior Wall,           !- Construction Name
    Dining EL2 West Perim Spc (G.W3),  !- Zone Name
    ,                        !- Space Name
    Surface,                 !- Outside Boundary Condition
    EL2 South Wall (G.N2.I4),!- Outside Boundary Condition Object
    NoSun,                   !- Sun Exposure
    NoWind,                  !- Wind Exposure
    ,                        !- View Factor to Ground
    ,                        !- Number of Vertices
    -2.000000064e-05,9.10129752,3.2004,  !- X,Y,Z ==> Vertex 1 {m}
    -2.000000064e-05,9.10129752,0,  !- X,Y,Z ==> Vertex 2 {m}
    -7.89432,9.10129752,0,  !- X,Y,Z ==> Vertex 3 {m}
    -7.89432,9.10129752,3.2004;  !- X,Y,Z ==> Vertex 4 {m}

  BuildingSurface:Detailed,
    EL2 South Wall (G.N5.I11),  !- Name
    Wall,                    !- Surface Type
    Interior Wall,           !- Construction Name
    EL2 North Perim Plnm (G.N5),  !- Zone Name
    ,                        !- Space Name
    Surface,                 !- Outside Boundary Condition
    EL2 South Wall (G.N5.I11) Reversed,  !- Outside Boundary Condition Object
    NoSun,                   !- Sun Exposure
    NoWind,                  !- Wind Exposure
    ,                        !- View Factor to Ground
    ,                        !- Number of Vertices
    -7.89432,9.10129752,3.6576,  !- X,Y,Z ==> Vertex 1 {m}
    -7.89432,9.10129752,3.2004,  !- X,Y,Z ==> Vertex 2 {m}
    -2.000000064e-05,9.10129752,3.2004,  !- X,Y,Z ==> Vertex 3 {m}
    -2.000000064e-05,9.10129752,3.6576;  !- X,Y,Z ==> Vertex 4 {m}

  BuildingSurface:Detailed,
    EL2 South Wall (G.N5.I11) Reversed,  !- Name
    Wall,                    !- Surface Type
    Interior Wall,           !- Construction Name
    EL2 West Perim Plnm (G.W6),  !- Zone Name
    ,                        !- Space Name
    Surface,                 !- Outside Boundary Condition
    EL2 South Wall (G.N5.I11),  !- Outside Boundary Condition Object
    NoSun,                   !- Sun Exposure
    NoWind,                  !- Wind Exposure
    ,                        !- View Factor to Ground
    ,                        !- Number of Vertices
    -2.000000064e-05,9.10129752,3.6576,  !- X,Y,Z ==> Vertex 1 {m}
    -2.000000064e-05,9.10129752,3.2004,  !- X,Y,Z ==> Vertex 2 {m}
    -7.89432,9.10129752,3.2004,  !- X,Y,Z ==> Vertex 3 {m}
    -7.89432,9.10129752,3.6576;  !- X,Y,Z ==> Vertex 4 {m}

  BuildingSurface:Detailed,
    EL2 South Wall (G.S1.E1),!- Name
    Wall,                    !- Surface Type
    Exterior Wall,           !- Construction Name
    Kitchen EL2 South Perim Spc (G.S1),  !- Zone Name
    ,                        !- Space Name
    Outdoors,                !- Outside Boundary Condition
    ,                        !- Outside Boundary Condition Object
    SunExposed,              !- Sun Exposure
    WindExposed,             !- Wind Exposure
    ,                        !- View Factor to Ground
    ,                        !- Number of Vertices
    -7.89432,-1.17634512e-07,3.2004,  !- X,Y,Z ==> Vertex 1 {m}
    -7.89432,-1.17634512e-07,0,  !- X,Y,Z ==> Vertex 2 {m}
    -2.000000064e-05,-1.17634512e-07,0,  !- X,Y,Z ==> Vertex 3 {m}
    -2.000000064e-05,-1.17634512e-07,3.2004;  !- X,Y,Z ==> Vertex 4 {m}

  BuildingSurface:Detailed,
    EL2 South Wall (G.S4.E6),!- Name
    Wall,                    !- Surface Type
    Exterior Wall,           !- Construction Name
    EL2 South Perim Plnm (G.S4),  !- Zone Name
    ,                        !- Space Name
    Outdoors,                !- Outside Boundary Condition
    ,                        !- Outside Boundary Condition Object
    SunExposed,              !- Sun Exposure
    WindExposed,             !- Wind Exposure
    ,                        !- View Factor to Ground
    ,                        !- Number of Vertices
    -7.89432,-1.17634512e-07,3.6576,  !- X,Y,Z ==> Vertex 1 {m}
    -7.89432,-1.17634512e-07,3.2004,  !- X,Y,Z ==> Vertex 2 {m}
    -2.000000064e-05,-1.17634512e-07,3.2004,  !- X,Y,Z ==> Vertex 3 {m}
    -2.000000064e-05,-1.17634512e-07,3.6576;  !- X,Y,Z ==> Vertex 4 {m}

  BuildingSurface:Detailed,
    EL2 West Wall (G.N2.E4), !- Name
    Wall,                    !- Surface Type
    Exterior Wall,           !- Construction Name
    BarCasino EL2 North Perim Spc (G.N2),  !- Zone Name
    ,                        !- Space Name
    Outdoors,                !- Outside Boundary Condition
    ,                        !- Outside Boundary Condition Object
    SunExposed,              !- Sun Exposure
    WindExposed,             !- Wind Exposure
    ,                        !- View Factor to Ground
    ,                        !- Number of Vertices
    -7.89432,16.4592,3.2004,  !- X,Y,Z ==> Vertex 1 {m}
    -7.89432,16.4592,0,  !- X,Y,Z ==> Vertex 2 {m}
    -7.89432,9.10129752,0,  !- X,Y,Z ==> Vertex 3 {m}
    -7.89432,9.10129752,3.2004;  !- X,Y,Z ==> Vertex 4 {m}

  BuildingSurface:Detailed,
    EL2 West Wall (G.N5.E10),!- Name
    Wall,                    !- Surface Type
    Exterior Wall,           !- Construction Name
    EL2 North Perim Plnm (G.N5),  !- Zone Name
    ,                        !- Space Name
    Outdoors,                !- Outside Boundary Condition
    ,                        !- Outside Boundary Condition Object
    SunExposed,              !- Sun Exposure
    WindExposed,             !- Wind Exposure
    ,                        !- View Factor to Ground
    ,                        !- Number of Vertices
    -7.89432,16.4592,3.6576,  !- X,Y,Z ==> Vertex 1 {m}
    -7.89432,16.4592,3.2004,  !- X,Y,Z ==> Vertex 2 {m}
    -7.89432,9.10129752,3.2004,  !- X,Y,Z ==> Vertex 3 {m}
    -7.89432,9.10129752,3.6576;  !- X,Y,Z ==> Vertex 4 {m}

  BuildingSurface:Detailed,
    EL2 West Wall (G.S1.E2), !- Name
    Wall,                    !- Surface Type
    Exterior Wall,           !- Construction Name
    Kitchen EL2 South Perim Spc (G.S1),  !- Zone Name
    ,                        !- Space Name
    Outdoors,                !- Outside Boundary Condition
    ,                        !- Outside Boundary Condition Object
    SunExposed,              !- Sun Exposure
    WindExposed,             !- Wind Exposure
    ,                        !- View Factor to Ground
    ,                        !- Number of Vertices
    -7.89432,4.39518552,3.2004,  !- X,Y,Z ==> Vertex 1 {m}
    -7.89432,4.39518552,0,  !- X,Y,Z ==> Vertex 2 {m}
    -7.89432,-1.17634512e-07,0,  !- X,Y,Z ==> Vertex 3 {m}
    -7.89432,-1.17634512e-07,3.2004;  !- X,Y,Z ==> Vertex 4 {m}

  BuildingSurface:Detailed,
    EL2 West Wall (G.S4.E7), !- Name
    Wall,                    !- Surface Type
    Exterior Wall,           !- Construction Name
    EL2 South Perim Plnm (G.S4),  !- Zone Name
    ,                        !- Space Name
    Outdoors,                !- Outside Boundary Condition
    ,                        !- Outside Boundary Condition Object
    SunExposed,              !- Sun Exposure
    WindExposed,             !- Wind Exposure
    ,                        !- View Factor to Ground
    ,                        !- Number of Vertices
    -7.89432,4.39518552,3.6576,  !- X,Y,Z ==> Vertex 1 {m}
    -7.89432,4.39518552,3.2004,  !- X,Y,Z ==> Vertex 2 {m}
    -7.89432,-1.17634512e-07,3.2004,  !- X,Y,Z ==> Vertex 3 {m}
    -7.89432,-1.17634512e-07,3.6576;  !- X,Y,Z ==> Vertex 4 {m}

  BuildingSurface:Detailed,
    EL2 West Wall (G.W3.E5), !- Name
    Wall,                    !- Surface Type
    Exterior Wall,           !- Construction Name
    Dining EL2 West Perim Spc (G.W3),  !- Zone Name
    ,                        !- Space Name
    Outdoors,                !- Outside Boundary Condition
    ,                        !- Outside Boundary Condition Object
    SunExposed,              !- Sun Exposure
    WindExposed,             !- Wind Exposure
    ,                        !- View Factor to Ground
    ,                        !- Number of Vertices
    -7.89432,9.10129752,3.2004,  !- X,Y,Z ==> Vertex 1 {m}
    -7.89432,9.10129752,0,  !- X,Y,Z ==> Vertex 2 {m}
    -7.89432,4.39518552,0,  !- X,Y,Z ==> Vertex 3 {m}
    -7.89432,4.39518552,3.2004;  !- X,Y,Z ==> Vertex 4 {m}

  BuildingSurface:Detailed,
    EL2 West Wall (G.W6.E12),!- Name
    Wall,                    !- Surface Type
    Exterior Wall,           !- Construction Name
    EL2 West Perim Plnm (G.W6),  !- Zone Name
    ,                        !- Space Name
    Outdoors,                !- Outside Boundary Condition
    ,                        !- Outside Boundary Condition Object
    SunExposed,              !- Sun Exposure
    WindExposed,             !- Wind Exposure
    ,                        !- View Factor to Ground
    ,                        !- Number of Vertices
    -7.89432,9.10129752,3.6576,  !- X,Y,Z ==> Vertex 1 {m}
    -7.89432,9.10129752,3.2004,  !- X,Y,Z ==> Vertex 2 {m}
    -7.89432,4.39518552,3.2004,  !- X,Y,Z ==> Vertex 3 {m}
    -7.89432,4.39518552,3.6576;  !- X,Y,Z ==> Vertex 4 {m}

  BuildingSurface:Detailed,
    EL3 Ceiling (G.N1.I3)-mirror,  !- Name
    Floor,                   !- Surface Type
    Interior Floor,          !- Construction Name
    EL3 North Perim Plnm (G.N4),  !- Zone Name
    ,                        !- Space Name
    Surface,                 !- Outside Boundary Condition
    EL3 Ceiling (G.N1.I3)-mirror Reversed,  !- Outside Boundary Condition Object
    NoSun,                   !- Sun Exposure
    NoWind,                  !- Wind Exposure
    ,                        !- View Factor to Ground
    ,                        !- Number of Vertices
    100.69068,16.4592,3.2004,  !- X,Y,Z ==> Vertex 1 {m}
    100.69068,12.06401448,3.2004,  !- X,Y,Z ==> Vertex 2 {m}
    92.79636,12.06401448,3.2004,  !- X,Y,Z ==> Vertex 3 {m}
    92.79636,16.4592,3.2004;  !- X,Y,Z ==> Vertex 4 {m}

  BuildingSurface:Detailed,
    EL3 Ceiling (G.N1.I3)-mirror Reversed,  !- Name
    Ceiling,                 !- Surface Type
    Radiant Interior Ceiling,!- Construction Name
    BarCasino EL3 North Perim Spc (G.N1),  !- Zone Name
    ,                        !- Space Name
    Surface,                 !- Outside Boundary Condition
    EL3 Ceiling (G.N1.I3)-mirror,  !- Outside Boundary Condition Object
    NoSun,                   !- Sun Exposure
    NoWind,                  !- Wind Exposure
    ,                        !- View Factor to Ground
    ,                        !- Number of Vertices
    100.69068,12.06401448,3.2004,  !- X,Y,Z ==> Vertex 1 {m}
    100.69068,16.4592,3.2004,  !- X,Y,Z ==> Vertex 2 {m}
    92.79636,16.4592,3.2004,  !- X,Y,Z ==> Vertex 3 {m}
    92.79636,12.06401448,3.2004;  !- X,Y,Z ==> Vertex 4 {m}

  BuildingSurface:Detailed,
    EL3 Ceiling (G.S2.I6)-mirror,  !- Name
    Floor,                   !- Surface Type
    Interior Floor,          !- Construction Name
    EL3 South Perim Plnm (G.S5),  !- Zone Name
    ,                        !- Space Name
    Surface,                 !- Outside Boundary Condition
    EL3 Ceiling (G.S2.I6)-mirror Reversed,  !- Outside Boundary Condition Object
    NoSun,                   !- Sun Exposure
    NoWind,                  !- Wind Exposure
    ,                        !- View Factor to Ground
    ,                        !- Number of Vertices
    100.69068,7.35790248,3.2004,  !- X,Y,Z ==> Vertex 1 {m}
    100.69068,-1.17634512e-07,3.2004,  !- X,Y,Z ==> Vertex 2 {m}
    92.79636,-1.17634512e-07,3.2004,  !- X,Y,Z ==> Vertex 3 {m}
    92.79636,7.35790248,3.2004;  !- X,Y,Z ==> Vertex 4 {m}

  BuildingSurface:Detailed,
    EL3 Ceiling (G.S2.I6)-mirror Reversed,  !- Name
    Ceiling,                 !- Surface Type
    Radiant Interior Ceiling,!- Construction Name
    Kitchen EL3 South Perim Spc (G.S2),  !- Zone Name
    ,                        !- Space Name
    Surface,                 !- Outside Boundary Condition
    EL3 Ceiling (G.S2.I6)-mirror,  !- Outside Boundary Condition Object
    NoSun,                   !- Sun Exposure
    NoWind,                  !- Wind Exposure
    ,                        !- View Factor to Ground
    ,                        !- Number of Vertices
    100.69068,-1.17634512e-07,3.2004,  !- X,Y,Z ==> Vertex 1 {m}
    100.69068,7.35790248,3.2004,  !- X,Y,Z ==> Vertex 2 {m}
    92.79636,7.35790248,3.2004,  !- X,Y,Z ==> Vertex 3 {m}
    92.79636,-1.17634512e-07,3.2004;  !- X,Y,Z ==> Vertex 4 {m}

  BuildingSurface:Detailed,
    EL3 Ceiling (G.W3.I8)-mirror,  !- Name
    Floor,                   !- Surface Type
    Interior Floor,          !- Construction Name
    EL3 West Perim Plnm (G.W6),  !- Zone Name
    ,                        !- Space Name
    Surface,                 !- Outside Boundary Condition
    EL3 Ceiling (G.W3.I8)-mirror Reversed,  !- Outside Boundary Condition Object
    NoSun,                   !- Sun Exposure
    NoWind,                  !- Wind Exposure
    ,                        !- View Factor to Ground
    ,                        !- Number of Vertices
    100.69068,12.06401448,3.2004,  !- X,Y,Z ==> Vertex 1 {m}
    100.69068,7.35790248,3.2004,  !- X,Y,Z ==> Vertex 2 {m}
    92.79636,7.35790248,3.2004,  !- X,Y,Z ==> Vertex 3 {m}
    92.79636,12.06401448,3.2004;  !- X,Y,Z ==> Vertex 4 {m}

  BuildingSurface:Detailed,
    EL3 Ceiling (G.W3.I8)-mirror Reversed,  !- Name
    Ceiling,                 !- Surface Type
    Radiant Interior Ceiling,!- Construction Name
    Dining EL3 West Perim Spc (G.W3),  !- Zone Name
    ,                        !- Space Name
    Surface,                 !- Outside Boundary Condition
    EL3 Ceiling (G.W3.I8)-mirror,  !- Outside Boundary Condition Object
    NoSun,                   !- Sun Exposure
    NoWind,                  !- Wind Exposure
    ,                        !- View Factor to Ground
    ,                        !- Number of Vertices
    100.69068,7.35790248,3.2004,  !- X,Y,Z ==> Vertex 1 {m}
    100.69068,12.06401448,3.2004,  !- X,Y,Z ==> Vertex 2 {m}
    92.79636,12.06401448,3.2004,  !- X,Y,Z ==> Vertex 3 {m}
    92.79636,7.35790248,3.2004;  !- X,Y,Z ==> Vertex 4 {m}

  BuildingSurface:Detailed,
    EL3 East Wall (G.N1.E2), !- Name
    Wall,                    !- Surface Type
    Exterior Wall,           !- Construction Name
    BarCasino EL3 North Perim Spc (G.N1),  !- Zone Name
    ,                        !- Space Name
    Outdoors,                !- Outside Boundary Condition
    ,                        !- Outside Boundary Condition Object
    SunExposed,              !- Sun Exposure
    WindExposed,             !- Wind Exposure
    ,                        !- View Factor to Ground
    ,                        !- Number of Vertices
    100.69068,12.06401448,3.2004,  !- X,Y,Z ==> Vertex 1 {m}
    100.69068,12.06401448,0,  !- X,Y,Z ==> Vertex 2 {m}
    100.69068,16.4592,0,  !- X,Y,Z ==> Vertex 3 {m}
    100.69068,16.4592,3.2004;  !- X,Y,Z ==> Vertex 4 {m}

  BuildingSurface:Detailed,
    EL3 East Wall (G.N4.E7), !- Name
    Wall,                    !- Surface Type
    Exterior Wall,           !- Construction Name
    EL3 North Perim Plnm (G.N4),  !- Zone Name
    ,                        !- Space Name
    Outdoors,                !- Outside Boundary Condition
    ,                        !- Outside Boundary Condition Object
    SunExposed,              !- Sun Exposure
    WindExposed,             !- Wind Exposure
    ,                        !- View Factor to Ground
    ,                        !- Number of Vertices
    100.69068,12.06401448,3.6576,  !- X,Y,Z ==> Vertex 1 {m}
    100.69068,12.06401448,3.2004,  !- X,Y,Z ==> Vertex 2 {m}
    100.69068,16.4592,3.2004,  !- X,Y,Z ==> Vertex 3 {m}
    100.69068,16.4592,3.6576;  !- X,Y,Z ==> Vertex 4 {m}

  BuildingSurface:Detailed,
    EL3 East Wall (G.S2.E4), !- Name
    Wall,                    !- Surface Type
    Exterior Wall,           !- Construction Name
    Kitchen EL3 South Perim Spc (G.S2),  !- Zone Name
    ,                        !- Space Name
    Outdoors,                !- Outside Boundary Condition
    ,                        !- Outside Boundary Condition Object
    SunExposed,              !- Sun Exposure
    WindExposed,             !- Wind Exposure
    ,                        !- View Factor to Ground
    ,                        !- Number of Vertices
    100.69068,-1.17634512e-07,3.2004,  !- X,Y,Z ==> Vertex 1 {m}
    100.69068,-1.17634512e-07,0,  !- X,Y,Z ==> Vertex 2 {m}
    100.69068,7.35790248,0,  !- X,Y,Z ==> Vertex 3 {m}
    100.69068,7.35790248,3.2004;  !- X,Y,Z ==> Vertex 4 {m}

  BuildingSurface:Detailed,
    EL3 East Wall (G.S5.E10),!- Name
    Wall,                    !- Surface Type
    Exterior Wall,           !- Construction Name
    EL3 South Perim Plnm (G.S5),  !- Zone Name
    ,                        !- Space Name
    Outdoors,                !- Outside Boundary Condition
    ,                        !- Outside Boundary Condition Object
    SunExposed,              !- Sun Exposure
    WindExposed,             !- Wind Exposure
    ,                        !- View Factor to Ground
    ,                        !- Number of Vertices
    100.69068,-1.17634512e-07,3.6576,  !- X,Y,Z ==> Vertex 1 {m}
    100.69068,-1.17634512e-07,3.2004,  !- X,Y,Z ==> Vertex 2 {m}
    100.69068,7.35790248,3.2004,  !- X,Y,Z ==> Vertex 3 {m}
    100.69068,7.35790248,3.6576;  !- X,Y,Z ==> Vertex 4 {m}

  BuildingSurface:Detailed,
    EL3 East Wall (G.W3.E5), !- Name
    Wall,                    !- Surface Type
    Exterior Wall,           !- Construction Name
    Dining EL3 West Perim Spc (G.W3),  !- Zone Name
    ,                        !- Space Name
    Outdoors,                !- Outside Boundary Condition
    ,                        !- Outside Boundary Condition Object
    SunExposed,              !- Sun Exposure
    WindExposed,             !- Wind Exposure
    ,                        !- View Factor to Ground
    ,                        !- Number of Vertices
    100.69068,7.35790248,3.2004,  !- X,Y,Z ==> Vertex 1 {m}
    100.69068,7.35790248,0,  !- X,Y,Z ==> Vertex 2 {m}
    100.69068,12.06401448,0,  !- X,Y,Z ==> Vertex 3 {m}
    100.69068,12.06401448,3.2004;  !- X,Y,Z ==> Vertex 4 {m}

  BuildingSurface:Detailed,
    EL3 East Wall (G.W6.E12),!- Name
    Wall,                    !- Surface Type
    Exterior Wall,           !- Construction Name
    EL3 West Perim Plnm (G.W6),  !- Zone Name
    ,                        !- Space Name
    Outdoors,                !- Outside Boundary Condition
    ,                        !- Outside Boundary Condition Object
    SunExposed,              !- Sun Exposure
    WindExposed,             !- Wind Exposure
    ,                        !- View Factor to Ground
    ,                        !- Number of Vertices
    100.69068,7.35790248,3.6576,  !- X,Y,Z ==> Vertex 1 {m}
    100.69068,7.35790248,3.2004,  !- X,Y,Z ==> Vertex 2 {m}
    100.69068,12.06401448,3.2004,  !- X,Y,Z ==> Vertex 3 {m}
    100.69068,12.06401448,3.6576;  !- X,Y,Z ==> Vertex 4 {m}

  BuildingSurface:Detailed,
    EL3 Flr (G.N1.U1),       !- Name
    Floor,                   !- Surface Type
    EL3 Flr (G.N1.U1) SlabOnOrBelowGradeF073,  !- Construction Name
    BarCasino EL3 North Perim Spc (G.N1),  !- Zone Name
    ,                        !- Space Name
    GroundFCfactorMethod,    !- Outside Boundary Condition
    ,                        !- Outside Boundary Condition Object
    NoSun,                   !- Sun Exposure
    NoWind,                  !- Wind Exposure
    ,                        !- View Factor to Ground
    ,                        !- Number of Vertices
    100.69068,16.4592,0,  !- X,Y,Z ==> Vertex 1 {m}
    100.69068,12.06401448,0,  !- X,Y,Z ==> Vertex 2 {m}
    92.79636,12.06401448,0,  !- X,Y,Z ==> Vertex 3 {m}
    92.79636,16.4592,0;  !- X,Y,Z ==> Vertex 4 {m}

  BuildingSurface:Detailed,
    EL3 Flr (G.S2.U2),       !- Name
    Floor,                   !- Surface Type
    EL3 Flr (G.S2.U2) SlabOnOrBelowGradeF073,  !- Construction Name
    Kitchen EL3 South Perim Spc (G.S2),  !- Zone Name
    ,                        !- Space Name
    GroundFCfactorMethod,    !- Outside Boundary Condition
    ,                        !- Outside Boundary Condition Object
    NoSun,                   !- Sun Exposure
    NoWind,                  !- Wind Exposure
    ,                        !- View Factor to Ground
    ,                        !- Number of Vertices
    100.69068,7.35790248,0,  !- X,Y,Z ==> Vertex 1 {m}
    100.69068,-1.17634512e-07,0,  !- X,Y,Z ==> Vertex 2 {m}
    92.79636,-1.17634512e-07,0,  !- X,Y,Z ==> Vertex 3 {m}
    92.79636,7.35790248,0;  !- X,Y,Z ==> Vertex 4 {m}

  BuildingSurface:Detailed,
    EL3 Flr (G.W3.U3),       !- Name
    Floor,                   !- Surface Type
    EL3 Flr (G.W3.U3) SlabOnOrBelowGradeF073,  !- Construction Name
    Dining EL3 West Perim Spc (G.W3),  !- Zone Name
    ,                        !- Space Name
    GroundFCfactorMethod,    !- Outside Boundary Condition
    ,                        !- Outside Boundary Condition Object
    NoSun,                   !- Sun Exposure
    NoWind,                  !- Wind Exposure
    ,                        !- View Factor to Ground
    ,                        !- Number of Vertices
    100.69068,12.06401448,0,  !- X,Y,Z ==> Vertex 1 {m}
    100.69068,7.35790248,0,  !- X,Y,Z ==> Vertex 2 {m}
    92.79636,7.35790248,0,  !- X,Y,Z ==> Vertex 3 {m}
    92.79636,12.06401448,0;  !- X,Y,Z ==> Vertex 4 {m}

  BuildingSurface:Detailed,
    EL3 North Wall (G.N1.E1),!- Name
    Wall,                    !- Surface Type
    Exterior Wall,           !- Construction Name
    BarCasino EL3 North Perim Spc (G.N1),  !- Zone Name
    ,                        !- Space Name
    Outdoors,                !- Outside Boundary Condition
    ,                        !- Outside Boundary Condition Object
    SunExposed,              !- Sun Exposure
    WindExposed,             !- Wind Exposure
    ,                        !- View Factor to Ground
    ,                        !- Number of Vertices
    100.69068,16.4592,3.2004,  !- X,Y,Z ==> Vertex 1 {m}
    100.69068,16.4592,0,  !- X,Y,Z ==> Vertex 2 {m}
    92.79636,16.4592,0,  !- X,Y,Z ==> Vertex 3 {m}
    92.79636,16.4592,3.2004;  !- X,Y,Z ==> Vertex 4 {m}

  BuildingSurface:Detailed,
    EL3 North Wall (G.N4.E6),!- Name
    Wall,                    !- Surface Type
    Exterior Wall,           !- Construction Name
    EL3 North Perim Plnm (G.N4),  !- Zone Name
    ,                        !- Space Name
    Outdoors,                !- Outside Boundary Condition
    ,                        !- Outside Boundary Condition Object
    SunExposed,              !- Sun Exposure
    WindExposed,             !- Wind Exposure
    ,                        !- View Factor to Ground
    ,                        !- Number of Vertices
    100.69068,16.4592,3.6576,  !- X,Y,Z ==> Vertex 1 {m}
    100.69068,16.4592,3.2004,  !- X,Y,Z ==> Vertex 2 {m}
    92.79636,16.4592,3.2004,  !- X,Y,Z ==> Vertex 3 {m}
    92.79636,16.4592,3.6576;  !- X,Y,Z ==> Vertex 4 {m}

  BuildingSurface:Detailed,
    EL3 North Wall (G.S2.I4),!- Name
    Wall,                    !- Surface Type
    Interior Wall,           !- Construction Name
    Kitchen EL3 South Perim Spc (G.S2),  !- Zone Name
    ,                        !- Space Name
    Surface,                 !- Outside Boundary Condition
    EL3 North Wall (G.S2.I4) Reversed,  !- Outside Boundary Condition Object
    NoSun,                   !- Sun Exposure
    NoWind,                  !- Wind Exposure
    ,                        !- View Factor to Ground
    ,                        !- Number of Vertices
    100.69068,7.35790248,3.2004,  !- X,Y,Z ==> Vertex 1 {m}
    100.69068,7.35790248,0,  !- X,Y,Z ==> Vertex 2 {m}
    92.79636,7.35790248,0,  !- X,Y,Z ==> Vertex 3 {m}
    92.79636,7.35790248,3.2004;  !- X,Y,Z ==> Vertex 4 {m}

  BuildingSurface:Detailed,
    EL3 North Wall (G.S2.I4) Reversed,  !- Name
    Wall,                    !- Surface Type
    Interior Wall,           !- Construction Name
    Dining EL3 West Perim Spc (G.W3),  !- Zone Name
    ,                        !- Space Name
    Surface,                 !- Outside Boundary Condition
    EL3 North Wall (G.S2.I4),!- Outside Boundary Condition Object
    NoSun,                   !- Sun Exposure
    NoWind,                  !- Wind Exposure
    ,                        !- View Factor to Ground
    ,                        !- Number of Vertices
    92.79636,7.35790248,3.2004,  !- X,Y,Z ==> Vertex 1 {m}
    92.79636,7.35790248,0,  !- X,Y,Z ==> Vertex 2 {m}
    100.69068,7.35790248,0,  !- X,Y,Z ==> Vertex 3 {m}
    100.69068,7.35790248,3.2004;  !- X,Y,Z ==> Vertex 4 {m}

  BuildingSurface:Detailed,
    EL3 North Wall (G.S5.I11),  !- Name
    Wall,                    !- Surface Type
    Interior Wall,           !- Construction Name
    EL3 South Perim Plnm (G.S5),  !- Zone Name
    ,                        !- Space Name
    Surface,                 !- Outside Boundary Condition
    EL3 North Wall (G.S5.I11) Reversed,  !- Outside Boundary Condition Object
    NoSun,                   !- Sun Exposure
    NoWind,                  !- Wind Exposure
    ,                        !- View Factor to Ground
    ,                        !- Number of Vertices
    100.69068,7.35790248,3.6576,  !- X,Y,Z ==> Vertex 1 {m}
    100.69068,7.35790248,3.2004,  !- X,Y,Z ==> Vertex 2 {m}
    92.79636,7.35790248,3.2004,  !- X,Y,Z ==> Vertex 3 {m}
    92.79636,7.35790248,3.6576;  !- X,Y,Z ==> Vertex 4 {m}

  BuildingSurface:Detailed,
    EL3 North Wall (G.S5.I11) Reversed,  !- Name
    Wall,                    !- Surface Type
    Interior Wall,           !- Construction Name
    EL3 West Perim Plnm (G.W6),  !- Zone Name
    ,                        !- Space Name
    Surface,                 !- Outside Boundary Condition
    EL3 North Wall (G.S5.I11),  !- Outside Boundary Condition Object
    NoSun,                   !- Sun Exposure
    NoWind,                  !- Wind Exposure
    ,                        !- View Factor to Ground
    ,                        !- Number of Vertices
    92.79636,7.35790248,3.6576,  !- X,Y,Z ==> Vertex 1 {m}
    92.79636,7.35790248,3.2004,  !- X,Y,Z ==> Vertex 2 {m}
    100.69068,7.35790248,3.2004,  !- X,Y,Z ==> Vertex 3 {m}
    100.69068,7.35790248,3.6576;  !- X,Y,Z ==> Vertex 4 {m}

  BuildingSurface:Detailed,
    EL3 Roof (G.N4.E8),      !- Name
    Roof,                    !- Surface Type
    Exterior Roof,           !- Construction Name
    EL3 North Perim Plnm (G.N4),  !- Zone Name
    ,                        !- Space Name
    Outdoors,                !- Outside Boundary Condition
    ,                        !- Outside Boundary Condition Object
    SunExposed,              !- Sun Exposure
    WindExposed,             !- Wind Exposure
    ,                        !- View Factor to Ground
    ,                        !- Number of Vertices
    100.69068,12.06401448,3.6576,  !- X,Y,Z ==> Vertex 1 {m}
    100.69068,16.4592,3.6576,  !- X,Y,Z ==> Vertex 2 {m}
    92.79636,16.4592,3.6576,  !- X,Y,Z ==> Vertex 3 {m}
    92.79636,12.06401448,3.6576;  !- X,Y,Z ==> Vertex 4 {m}

  BuildingSurface:Detailed,
    EL3 Roof (G.S5.E11),     !- Name
    Roof,                    !- Surface Type
    Exterior Roof,           !- Construction Name
    EL3 South Perim Plnm (G.S5),  !- Zone Name
    ,                        !- Space Name
    Outdoors,                !- Outside Boundary Condition
    ,                        !- Outside Boundary Condition Object
    SunExposed,              !- Sun Exposure
    WindExposed,             !- Wind Exposure
    ,                        !- View Factor to Ground
    ,                        !- Number of Vertices
    100.69068,-1.17634512e-07,3.6576,  !- X,Y,Z ==> Vertex 1 {m}
    100.69068,7.35790248,3.6576,  !- X,Y,Z ==> Vertex 2 {m}
    92.79636,7.35790248,3.6576,  !- X,Y,Z ==> Vertex 3 {m}
    92.79636,-1.17634512e-07,3.6576;  !- X,Y,Z ==> Vertex 4 {m}

  BuildingSurface:Detailed,
    EL3 Roof (G.W6.E13),     !- Name
    Roof,                    !- Surface Type
    Exterior Roof,           !- Construction Name
    EL3 West Perim Plnm (G.W6),  !- Zone Name
    ,                        !- Space Name
    Outdoors,                !- Outside Boundary Condition
    ,                        !- Outside Boundary Condition Object
    SunExposed,              !- Sun Exposure
    WindExposed,             !- Wind Exposure
    ,                        !- View Factor to Ground
    ,                        !- Number of Vertices
    100.69068,7.35790248,3.6576,  !- X,Y,Z ==> Vertex 1 {m}
    100.69068,12.06401448,3.6576,  !- X,Y,Z ==> Vertex 2 {m}
    92.79636,12.06401448,3.6576,  !- X,Y,Z ==> Vertex 3 {m}
    92.79636,7.35790248,3.6576;  !- X,Y,Z ==> Vertex 4 {m}

  BuildingSurface:Detailed,
    EL3 South Wall (G.N1.I2),!- Name
    Wall,                    !- Surface Type
    Interior Wall,           !- Construction Name
    BarCasino EL3 North Perim Spc (G.N1),  !- Zone Name
    ,                        !- Space Name
    Surface,                 !- Outside Boundary Condition
    EL3 South Wall (G.N1.I2) Reversed,  !- Outside Boundary Condition Object
    NoSun,                   !- Sun Exposure
    NoWind,                  !- Wind Exposure
    ,                        !- View Factor to Ground
    ,                        !- Number of Vertices
    92.79636,12.06401448,3.2004,  !- X,Y,Z ==> Vertex 1 {m}
    92.79636,12.06401448,0,  !- X,Y,Z ==> Vertex 2 {m}
    100.69068,12.06401448,0,  !- X,Y,Z ==> Vertex 3 {m}
    100.69068,12.06401448,3.2004;  !- X,Y,Z ==> Vertex 4 {m}

  BuildingSurface:Detailed,
    EL3 South Wall (G.N1.I2) Reversed,  !- Name
    Wall,                    !- Surface Type
    Interior Wall,           !- Construction Name
    Dining EL3 West Perim Spc (G.W3),  !- Zone Name
    ,                        !- Space Name
    Surface,                 !- Outside Boundary Condition
    EL3 South Wall (G.N1.I2),!- Outside Boundary Condition Object
    NoSun,                   !- Sun Exposure
    NoWind,                  !- Wind Exposure
    ,                        !- View Factor to Ground
    ,                        !- Number of Vertices
    100.69068,12.06401448,3.2004,  !- X,Y,Z ==> Vertex 1 {m}
    100.69068,12.06401448,0,  !- X,Y,Z ==> Vertex 2 {m}
    92.79636,12.06401448,0,  !- X,Y,Z ==> Vertex 3 {m}
    92.79636,12.06401448,3.2004;  !- X,Y,Z ==> Vertex 4 {m}

  BuildingSurface:Detailed,
    EL3 South Wall (G.N4.I10),  !- Name
    Wall,                    !- Surface Type
    Interior Wall,           !- Construction Name
    EL3 North Perim Plnm (G.N4),  !- Zone Name
    ,                        !- Space Name
    Surface,                 !- Outside Boundary Condition
    EL3 South Wall (G.N4.I10) Reversed,  !- Outside Boundary Condition Object
    NoSun,                   !- Sun Exposure
    NoWind,                  !- Wind Exposure
    ,                        !- View Factor to Ground
    ,                        !- Number of Vertices
    92.79636,12.06401448,3.6576,  !- X,Y,Z ==> Vertex 1 {m}
    92.79636,12.06401448,3.2004,  !- X,Y,Z ==> Vertex 2 {m}
    100.69068,12.06401448,3.2004,  !- X,Y,Z ==> Vertex 3 {m}
    100.69068,12.06401448,3.6576;  !- X,Y,Z ==> Vertex 4 {m}

  BuildingSurface:Detailed,
    EL3 South Wall (G.N4.I10) Reversed,  !- Name
    Wall,                    !- Surface Type
    Interior Wall,           !- Construction Name
    EL3 West Perim Plnm (G.W6),  !- Zone Name
    ,                        !- Space Name
    Surface,                 !- Outside Boundary Condition
    EL3 South Wall (G.N4.I10),  !- Outside Boundary Condition Object
    NoSun,                   !- Sun Exposure
    NoWind,                  !- Wind Exposure
    ,                        !- View Factor to Ground
    ,                        !- Number of Vertices
    100.69068,12.06401448,3.6576,  !- X,Y,Z ==> Vertex 1 {m}
    100.69068,12.06401448,3.2004,  !- X,Y,Z ==> Vertex 2 {m}
    92.79636,12.06401448,3.2004,  !- X,Y,Z ==> Vertex 3 {m}
    92.79636,12.06401448,3.6576;  !- X,Y,Z ==> Vertex 4 {m}

  BuildingSurface:Detailed,
    EL3 South Wall (G.S2.E3),!- Name
    Wall,                    !- Surface Type
    Exterior Wall,           !- Construction Name
    Kitchen EL3 South Perim Spc (G.S2),  !- Zone Name
    ,                        !- Space Name
    Outdoors,                !- Outside Boundary Condition
    ,                        !- Outside Boundary Condition Object
    SunExposed,              !- Sun Exposure
    WindExposed,             !- Wind Exposure
    ,                        !- View Factor to Ground
    ,                        !- Number of Vertices
    92.79636,-1.17634512e-07,3.2004,  !- X,Y,Z ==> Vertex 1 {m}
    92.79636,-1.17634512e-07,0,  !- X,Y,Z ==> Vertex 2 {m}
    100.69068,-1.17634512e-07,0,  !- X,Y,Z ==> Vertex 3 {m}
    100.69068,-1.17634512e-07,3.2004;  !- X,Y,Z ==> Vertex 4 {m}

  BuildingSurface:Detailed,
    EL3 South Wall (G.S5.E9),!- Name
    Wall,                    !- Surface Type
    Exterior Wall,           !- Construction Name
    EL3 South Perim Plnm (G.S5),  !- Zone Name
    ,                        !- Space Name
    Outdoors,                !- Outside Boundary Condition
    ,                        !- Outside Boundary Condition Object
    SunExposed,              !- Sun Exposure
    WindExposed,             !- Wind Exposure
    ,                        !- View Factor to Ground
    ,                        !- Number of Vertices
    92.79636,-1.17634512e-07,3.6576,  !- X,Y,Z ==> Vertex 1 {m}
    92.79636,-1.17634512e-07,3.2004,  !- X,Y,Z ==> Vertex 2 {m}
    100.69068,-1.17634512e-07,3.2004,  !- X,Y,Z ==> Vertex 3 {m}
    100.69068,-1.17634512e-07,3.6576;  !- X,Y,Z ==> Vertex 4 {m}

  BuildingSurface:Detailed,
    EL4 Ceiling (G.C5.I16)-mirror,  !- Name
    Floor,                   !- Surface Type
    Interior Floor,          !- Construction Name
    EL4 Core Plnm (G.C10),   !- Zone Name
    ,                        !- Space Name
    Surface,                 !- Outside Boundary Condition
    EL4 Ceiling (G.C5.I16)-mirror Reversed,  !- Outside Boundary Condition Object
    NoSun,                   !- Sun Exposure
    NoWind,                  !- Wind Exposure
    ,                        !- View Factor to Ground
    ,                        !- Number of Vertices
    92.79636,9.150096,6.096,  !- X,Y,Z ==> Vertex 1 {m}
    92.79636,7.309104,6.096,  !- X,Y,Z ==> Vertex 2 {m}
    0,7.309104,6.096,  !- X,Y,Z ==> Vertex 3 {m}
    0,9.150096,6.096;  !- X,Y,Z ==> Vertex 4 {m}

  BuildingSurface:Detailed,
    EL4 Ceiling (G.C5.I16)-mirror Reversed,  !- Name
    Ceiling,                 !- Surface Type
    Radiant Interior Ceiling,!- Construction Name
    Corridor EL4 Core Spc (G.C5),  !- Zone Name
    ,                        !- Space Name
    Surface,                 !- Outside Boundary Condition
    EL4 Ceiling (G.C5.I16)-mirror,  !- Outside Boundary Condition Object
    NoSun,                   !- Sun Exposure
    NoWind,                  !- Wind Exposure
    ,                        !- View Factor to Ground
    ,                        !- Number of Vertices
    92.79636,7.309104,6.096,  !- X,Y,Z ==> Vertex 1 {m}
    92.79636,9.150096,6.096,  !- X,Y,Z ==> Vertex 2 {m}
    0,9.150096,6.096,  !- X,Y,Z ==> Vertex 3 {m}
    0,7.309104,6.096;  !- X,Y,Z ==> Vertex 4 {m}

  BuildingSurface:Detailed,
    EL4 Ceiling (G.N1.I4)-mirror,  !- Name
    Floor,                   !- Surface Type
    Interior Floor,          !- Construction Name
    EL4 North Perim Plnm (G.N6),  !- Zone Name
    ,                        !- Space Name
    Surface,                 !- Outside Boundary Condition
    EL4 Ceiling (G.N1.I4)-mirror Reversed,  !- Outside Boundary Condition Object
    NoSun,                   !- Sun Exposure
    NoWind,                  !- Wind Exposure
    ,                        !- View Factor to Ground
    ,                        !- Number of Vertices
    69.598032,16.4592,6.096,  !- X,Y,Z ==> Vertex 1 {m}
    69.598032,9.150096,6.096,  !- X,Y,Z ==> Vertex 2 {m}
    0,9.150096,6.096,  !- X,Y,Z ==> Vertex 3 {m}
    0,16.4592,6.096;  !- X,Y,Z ==> Vertex 4 {m}

  BuildingSurface:Detailed,
    EL4 Ceiling (G.N1.I4)-mirror Reversed,  !- Name
    Ceiling,                 !- Surface Type
    Radiant Interior Ceiling,!- Construction Name
    GuestRm EL4 North Perim Spc (G.N1),  !- Zone Name
    ,                        !- Space Name
    Surface,                 !- Outside Boundary Condition
    EL4 Ceiling (G.N1.I4)-mirror,  !- Outside Boundary Condition Object
    NoSun,                   !- Sun Exposure
    NoWind,                  !- Wind Exposure
    ,                        !- View Factor to Ground
    ,                        !- Number of Vertices
    69.598032,9.150096,6.096,  !- X,Y,Z ==> Vertex 1 {m}
    69.598032,16.4592,6.096,  !- X,Y,Z ==> Vertex 2 {m}
    0,16.4592,6.096,  !- X,Y,Z ==> Vertex 3 {m}
    0,9.150096,6.096;  !- X,Y,Z ==> Vertex 4 {m}

  BuildingSurface:Detailed,
    EL4 Ceiling (G.NNE3.I11)-mirror,  !- Name
    Floor,                   !- Surface Type
    Interior Floor,          !- Construction Name
    EL4 NNE Perim Plnm (G.NNE8),  !- Zone Name
    ,                        !- Space Name
    Surface,                 !- Outside Boundary Condition
    EL4 Ceiling (G.NNE3.I11)-mirror Reversed,  !- Outside Boundary Condition Object
    NoSun,                   !- Sun Exposure
    NoWind,                  !- Wind Exposure
    ,                        !- View Factor to Ground
    ,                        !- Number of Vertices
    92.79636,16.4592,6.096,  !- X,Y,Z ==> Vertex 1 {m}
    92.79636,9.150096,6.096,  !- X,Y,Z ==> Vertex 2 {m}
    69.598032,9.150096,6.096,  !- X,Y,Z ==> Vertex 3 {m}
    69.598032,16.4592,6.096;  !- X,Y,Z ==> Vertex 4 {m}

  BuildingSurface:Detailed,
    EL4 Ceiling (G.NNE3.I11)-mirror Reversed,  !- Name
    Ceiling,                 !- Surface Type
    Radiant Interior Ceiling,!- Construction Name
    GuestRm EL4 NNE Perim Spc (G.NNE3),  !- Zone Name
    ,                        !- Space Name
    Surface,                 !- Outside Boundary Condition
    EL4 Ceiling (G.NNE3.I11)-mirror,  !- Outside Boundary Condition Object
    NoSun,                   !- Sun Exposure
    NoWind,                  !- Wind Exposure
    ,                        !- View Factor to Ground
    ,                        !- Number of Vertices
    92.79636,9.150096,6.096,  !- X,Y,Z ==> Vertex 1 {m}
    92.79636,16.4592,6.096,  !- X,Y,Z ==> Vertex 2 {m}
    69.598032,16.4592,6.096,  !- X,Y,Z ==> Vertex 3 {m}
    69.598032,9.150096,6.096;  !- X,Y,Z ==> Vertex 4 {m}

  BuildingSurface:Detailed,
    EL4 Ceiling (G.S4.I14)-mirror,  !- Name
    Floor,                   !- Surface Type
    Interior Floor,          !- Construction Name
    EL4 South Perim Plnm (G.S9),  !- Zone Name
    ,                        !- Space Name
    Surface,                 !- Outside Boundary Condition
    EL4 Ceiling (G.S4.I14)-mirror Reversed,  !- Outside Boundary Condition Object
    NoSun,                   !- Sun Exposure
    NoWind,                  !- Wind Exposure
    ,                        !- View Factor to Ground
    ,                        !- Number of Vertices
    92.79636,7.309104,6.096,  !- X,Y,Z ==> Vertex 1 {m}
    92.79636,-3.45682824e-07,6.096,  !- X,Y,Z ==> Vertex 2 {m}
    23.198328,-3.45682824e-07,6.096,  !- X,Y,Z ==> Vertex 3 {m}
    23.198328,7.309104,6.096;  !- X,Y,Z ==> Vertex 4 {m}

  BuildingSurface:Detailed,
    EL4 Ceiling (G.S4.I14)-mirror Reversed,  !- Name
    Ceiling,                 !- Surface Type
    Radiant Interior Ceiling,!- Construction Name
    GuestRm EL4 South Perim Spc (G.S4),  !- Zone Name
    ,                        !- Space Name
    Surface,                 !- Outside Boundary Condition
    EL4 Ceiling (G.S4.I14)-mirror,  !- Outside Boundary Condition Object
    NoSun,                   !- Sun Exposure
    NoWind,                  !- Wind Exposure
    ,                        !- View Factor to Ground
    ,                        !- Number of Vertices
    92.79636,-3.45682824e-07,6.096,  !- X,Y,Z ==> Vertex 1 {m}
    92.79636,7.309104,6.096,  !- X,Y,Z ==> Vertex 2 {m}
    23.198328,7.309104,6.096,  !- X,Y,Z ==> Vertex 3 {m}
    23.198328,-3.45682824e-07,6.096;  !- X,Y,Z ==> Vertex 4 {m}

  BuildingSurface:Detailed,
    EL4 Ceiling (G.SSW2.I8)-mirror,  !- Name
    Floor,                   !- Surface Type
    Interior Floor,          !- Construction Name
    EL4 SSW Perim Plnm (G.SSW7),  !- Zone Name
    ,                        !- Space Name
    Surface,                 !- Outside Boundary Condition
    EL4 Ceiling (G.SSW2.I8)-mirror Reversed,  !- Outside Boundary Condition Object
    NoSun,                   !- Sun Exposure
    NoWind,                  !- Wind Exposure
    ,                        !- View Factor to Ground
    ,                        !- Number of Vertices
    23.19829752,7.309104,6.096,  !- X,Y,Z ==> Vertex 1 {m}
    23.19829752,-3.45682824e-07,6.096,  !- X,Y,Z ==> Vertex 2 {m}
    0,-3.45682824e-07,6.096,  !- X,Y,Z ==> Vertex 3 {m}
    0,7.309104,6.096;  !- X,Y,Z ==> Vertex 4 {m}

  BuildingSurface:Detailed,
    EL4 Ceiling (G.SSW2.I8)-mirror Reversed,  !- Name
    Ceiling,                 !- Surface Type
    Radiant Interior Ceiling,!- Construction Name
    GuestRm EL4 SSW Perim Spc (G.SSW2),  !- Zone Name
    ,                        !- Space Name
    Surface,                 !- Outside Boundary Condition
    EL4 Ceiling (G.SSW2.I8)-mirror,  !- Outside Boundary Condition Object
    NoSun,                   !- Sun Exposure
    NoWind,                  !- Wind Exposure
    ,                        !- View Factor to Ground
    ,                        !- Number of Vertices
    23.19829752,-3.45682824e-07,6.096,  !- X,Y,Z ==> Vertex 1 {m}
    23.19829752,7.309104,6.096,  !- X,Y,Z ==> Vertex 2 {m}
    0,7.309104,6.096,  !- X,Y,Z ==> Vertex 3 {m}
    0,-3.45682824e-07,6.096;  !- X,Y,Z ==> Vertex 4 {m}

  BuildingSurface:Detailed,
    EL4 Ceiling (M.C15.I38)-mirror,  !- Name
    Floor,                   !- Surface Type
    Interior Floor,          !- Construction Name
    EL4 Core Plnm (M.C20),   !- Zone Name
    ,                        !- Space Name
    Surface,                 !- Outside Boundary Condition
    EL4 Ceiling (M.C15.I38)-mirror Reversed,  !- Outside Boundary Condition Object
    NoSun,                   !- Sun Exposure
    NoWind,                  !- Wind Exposure
    ,                        !- View Factor to Ground
    ,                        !- Number of Vertices
    92.79636,9.150096,8.9916,  !- X,Y,Z ==> Vertex 1 {m}
    92.79636,7.309104,8.9916,  !- X,Y,Z ==> Vertex 2 {m}
    0,7.309104,8.9916,  !- X,Y,Z ==> Vertex 3 {m}
    0,9.150096,8.9916;  !- X,Y,Z ==> Vertex 4 {m}

  BuildingSurface:Detailed,
    EL4 Ceiling (M.C15.I38)-mirror Reversed,  !- Name
    Ceiling,                 !- Surface Type
    Radiant Interior Ceiling,!- Construction Name
    Corridor EL4 Core Spc (M.C15),  !- Zone Name
    ,                        !- Space Name
    Surface,                 !- Outside Boundary Condition
    EL4 Ceiling (M.C15.I38)-mirror,  !- Outside Boundary Condition Object
    NoSun,                   !- Sun Exposure
    NoWind,                  !- Wind Exposure
    ,                        !- View Factor to Ground
    ,                        !- Number of Vertices
    92.79636,7.309104,8.9916,  !- X,Y,Z ==> Vertex 1 {m}
    92.79636,9.150096,8.9916,  !- X,Y,Z ==> Vertex 2 {m}
    0,9.150096,8.9916,  !- X,Y,Z ==> Vertex 3 {m}
    0,7.309104,8.9916;  !- X,Y,Z ==> Vertex 4 {m}

  BuildingSurface:Detailed,
    EL4 Ceiling (M.N11.I26)-mirror,  !- Name
    Floor,                   !- Surface Type
    Interior Floor,          !- Construction Name
    EL4 North Perim Plnm (M.N16),  !- Zone Name
    ,                        !- Space Name
    Surface,                 !- Outside Boundary Condition
    EL4 Ceiling (M.N11.I26)-mirror Reversed,  !- Outside Boundary Condition Object
    NoSun,                   !- Sun Exposure
    NoWind,                  !- Wind Exposure
    ,                        !- View Factor to Ground
    ,                        !- Number of Vertices
    69.598032,16.4592,8.9916,  !- X,Y,Z ==> Vertex 1 {m}
    69.598032,9.150096,8.9916,  !- X,Y,Z ==> Vertex 2 {m}
    0,9.150096,8.9916,  !- X,Y,Z ==> Vertex 3 {m}
    0,16.4592,8.9916;  !- X,Y,Z ==> Vertex 4 {m}

  BuildingSurface:Detailed,
    EL4 Ceiling (M.N11.I26)-mirror Reversed,  !- Name
    Ceiling,                 !- Surface Type
    Radiant Interior Ceiling,!- Construction Name
    GuestRm EL4 North Perim Spc (M.N11),  !- Zone Name
    ,                        !- Space Name
    Surface,                 !- Outside Boundary Condition
    EL4 Ceiling (M.N11.I26)-mirror,  !- Outside Boundary Condition Object
    NoSun,                   !- Sun Exposure
    NoWind,                  !- Wind Exposure
    ,                        !- View Factor to Ground
    ,                        !- Number of Vertices
    69.598032,9.150096,8.9916,  !- X,Y,Z ==> Vertex 1 {m}
    69.598032,16.4592,8.9916,  !- X,Y,Z ==> Vertex 2 {m}
    0,16.4592,8.9916,  !- X,Y,Z ==> Vertex 3 {m}
    0,9.150096,8.9916;  !- X,Y,Z ==> Vertex 4 {m}

  BuildingSurface:Detailed,
    EL4 Ceiling (M.NNE13.I33)-mirror,  !- Name
    Floor,                   !- Surface Type
    Interior Floor,          !- Construction Name
    EL4 NNE Perim Plnm (M.NNE18),  !- Zone Name
    ,                        !- Space Name
    Surface,                 !- Outside Boundary Condition
    EL4 Ceiling (M.NNE13.I33)-mirror Reversed,  !- Outside Boundary Condition Object
    NoSun,                   !- Sun Exposure
    NoWind,                  !- Wind Exposure
    ,                        !- View Factor to Ground
    ,                        !- Number of Vertices
    92.79636,16.4592,8.9916,  !- X,Y,Z ==> Vertex 1 {m}
    92.79636,9.150096,8.9916,  !- X,Y,Z ==> Vertex 2 {m}
    69.598032,9.150096,8.9916,  !- X,Y,Z ==> Vertex 3 {m}
    69.598032,16.4592,8.9916;  !- X,Y,Z ==> Vertex 4 {m}

  BuildingSurface:Detailed,
    EL4 Ceiling (M.NNE13.I33)-mirror Reversed,  !- Name
    Ceiling,                 !- Surface Type
    Radiant Interior Ceiling,!- Construction Name
    GuestRm EL4 NNE Perim Spc (M.NNE13),  !- Zone Name
    ,                        !- Space Name
    Surface,                 !- Outside Boundary Condition
    EL4 Ceiling (M.NNE13.I33)-mirror,  !- Outside Boundary Condition Object
    NoSun,                   !- Sun Exposure
    NoWind,                  !- Wind Exposure
    ,                        !- View Factor to Ground
    ,                        !- Number of Vertices
    92.79636,9.150096,8.9916,  !- X,Y,Z ==> Vertex 1 {m}
    92.79636,16.4592,8.9916,  !- X,Y,Z ==> Vertex 2 {m}
    69.598032,16.4592,8.9916,  !- X,Y,Z ==> Vertex 3 {m}
    69.598032,9.150096,8.9916;  !- X,Y,Z ==> Vertex 4 {m}

  BuildingSurface:Detailed,
    EL4 Ceiling (M.S14.I36)-mirror,  !- Name
    Floor,                   !- Surface Type
    Interior Floor,          !- Construction Name
    EL4 South Perim Plnm (M.S19),  !- Zone Name
    ,                        !- Space Name
    Surface,                 !- Outside Boundary Condition
    EL4 Ceiling (M.S14.I36)-mirror Reversed,  !- Outside Boundary Condition Object
    NoSun,                   !- Sun Exposure
    NoWind,                  !- Wind Exposure
    ,                        !- View Factor to Ground
    ,                        !- Number of Vertices
    92.79636,7.309104,8.9916,  !- X,Y,Z ==> Vertex 1 {m}
    92.79636,0,8.9916,  !- X,Y,Z ==> Vertex 2 {m}
    23.198328,0,8.9916,  !- X,Y,Z ==> Vertex 3 {m}
    23.198328,7.309104,8.9916;  !- X,Y,Z ==> Vertex 4 {m}

  BuildingSurface:Detailed,
    EL4 Ceiling (M.S14.I36)-mirror Reversed,  !- Name
    Ceiling,                 !- Surface Type
    Radiant Interior Ceiling,!- Construction Name
    GuestRm EL4 South Perim Spc (M.S14),  !- Zone Name
    ,                        !- Space Name
    Surface,                 !- Outside Boundary Condition
    EL4 Ceiling (M.S14.I36)-mirror,  !- Outside Boundary Condition Object
    NoSun,                   !- Sun Exposure
    NoWind,                  !- Wind Exposure
    ,                        !- View Factor to Ground
    ,                        !- Number of Vertices
    92.79636,0,8.9916,  !- X,Y,Z ==> Vertex 1 {m}
    92.79636,7.309104,8.9916,  !- X,Y,Z ==> Vertex 2 {m}
    23.198328,7.309104,8.9916,  !- X,Y,Z ==> Vertex 3 {m}
    23.198328,0,8.9916;  !- X,Y,Z ==> Vertex 4 {m}

  BuildingSurface:Detailed,
    EL4 Ceiling (M.SSW12.I30)-mirror,  !- Name
    Floor,                   !- Surface Type
    Interior Floor,          !- Construction Name
    EL4 SSW Perim Plnm (M.SSW17),  !- Zone Name
    ,                        !- Space Name
    Surface,                 !- Outside Boundary Condition
    EL4 Ceiling (M.SSW12.I30)-mirror Reversed,  !- Outside Boundary Condition Object
    NoSun,                   !- Sun Exposure
    NoWind,                  !- Wind Exposure
    ,                        !- View Factor to Ground
    ,                        !- Number of Vertices
    23.19829752,7.309104,8.9916,  !- X,Y,Z ==> Vertex 1 {m}
    23.19829752,-3.45682824e-07,8.9916,  !- X,Y,Z ==> Vertex 2 {m}
    0,-3.45682824e-07,8.9916,  !- X,Y,Z ==> Vertex 3 {m}
    0,7.309104,8.9916;  !- X,Y,Z ==> Vertex 4 {m}

  BuildingSurface:Detailed,
    EL4 Ceiling (M.SSW12.I30)-mirror Reversed,  !- Name
    Ceiling,                 !- Surface Type
    Radiant Interior Ceiling,!- Construction Name
    GuestRm EL4 SSW Perim Spc (M.SSW12),  !- Zone Name
    ,                        !- Space Name
    Surface,                 !- Outside Boundary Condition
    EL4 Ceiling (M.SSW12.I30)-mirror,  !- Outside Boundary Condition Object
    NoSun,                   !- Sun Exposure
    NoWind,                  !- Wind Exposure
    ,                        !- View Factor to Ground
    ,                        !- Number of Vertices
    23.19829752,-3.45682824e-07,8.9916,  !- X,Y,Z ==> Vertex 1 {m}
    23.19829752,7.309104,8.9916,  !- X,Y,Z ==> Vertex 2 {m}
    0,7.309104,8.9916,  !- X,Y,Z ==> Vertex 3 {m}
    0,-3.45682824e-07,8.9916;  !- X,Y,Z ==> Vertex 4 {m}

  BuildingSurface:Detailed,
    EL4 Ceiling (T.C25.I60)-mirror,  !- Name
    Floor,                   !- Surface Type
    Interior Floor,          !- Construction Name
    EL4 Core Plnm (T.C30),   !- Zone Name
    ,                        !- Space Name
    Surface,                 !- Outside Boundary Condition
    EL4 Ceiling (T.C25.I60)-mirror Reversed,  !- Outside Boundary Condition Object
    NoSun,                   !- Sun Exposure
    NoWind,                  !- Wind Exposure
    ,                        !- View Factor to Ground
    ,                        !- Number of Vertices
    92.79636,9.150096,11.8872,  !- X,Y,Z ==> Vertex 1 {m}
    92.79636,7.309104,11.8872,  !- X,Y,Z ==> Vertex 2 {m}
    0,7.309104,11.8872,  !- X,Y,Z ==> Vertex 3 {m}
    0,9.150096,11.8872;  !- X,Y,Z ==> Vertex 4 {m}

  BuildingSurface:Detailed,
    EL4 Ceiling (T.C25.I60)-mirror Reversed,  !- Name
    Ceiling,                 !- Surface Type
    Radiant Interior Ceiling,!- Construction Name
    Corridor EL4 Core Spc (T.C25),  !- Zone Name
    ,                        !- Space Name
    Surface,                 !- Outside Boundary Condition
    EL4 Ceiling (T.C25.I60)-mirror,  !- Outside Boundary Condition Object
    NoSun,                   !- Sun Exposure
    NoWind,                  !- Wind Exposure
    ,                        !- View Factor to Ground
    ,                        !- Number of Vertices
    92.79636,7.309104,11.8872,  !- X,Y,Z ==> Vertex 1 {m}
    92.79636,9.150096,11.8872,  !- X,Y,Z ==> Vertex 2 {m}
    0,9.150096,11.8872,  !- X,Y,Z ==> Vertex 3 {m}
    0,7.309104,11.8872;  !- X,Y,Z ==> Vertex 4 {m}

  BuildingSurface:Detailed,
    EL4 Ceiling (T.N21.I48)-mirror,  !- Name
    Floor,                   !- Surface Type
    Interior Floor,          !- Construction Name
    EL4 North Perim Plnm (T.N26),  !- Zone Name
    ,                        !- Space Name
    Surface,                 !- Outside Boundary Condition
    EL4 Ceiling (T.N21.I48)-mirror Reversed,  !- Outside Boundary Condition Object
    NoSun,                   !- Sun Exposure
    NoWind,                  !- Wind Exposure
    ,                        !- View Factor to Ground
    ,                        !- Number of Vertices
    69.598032,16.4592,11.8872,  !- X,Y,Z ==> Vertex 1 {m}
    69.598032,9.150096,11.8872,  !- X,Y,Z ==> Vertex 2 {m}
    0,9.150096,11.8872,  !- X,Y,Z ==> Vertex 3 {m}
    0,16.4592,11.8872;  !- X,Y,Z ==> Vertex 4 {m}

  BuildingSurface:Detailed,
    EL4 Ceiling (T.N21.I48)-mirror Reversed,  !- Name
    Ceiling,                 !- Surface Type
    Radiant Interior Ceiling,!- Construction Name
    GuestRm EL4 North Perim Spc (T.N21),  !- Zone Name
    ,                        !- Space Name
    Surface,                 !- Outside Boundary Condition
    EL4 Ceiling (T.N21.I48)-mirror,  !- Outside Boundary Condition Object
    NoSun,                   !- Sun Exposure
    NoWind,                  !- Wind Exposure
    ,                        !- View Factor to Ground
    ,                        !- Number of Vertices
    69.598032,9.150096,11.8872,  !- X,Y,Z ==> Vertex 1 {m}
    69.598032,16.4592,11.8872,  !- X,Y,Z ==> Vertex 2 {m}
    0,16.4592,11.8872,  !- X,Y,Z ==> Vertex 3 {m}
    0,9.150096,11.8872;  !- X,Y,Z ==> Vertex 4 {m}

  BuildingSurface:Detailed,
    EL4 Ceiling (T.NNE23.I55)-mirror,  !- Name
    Floor,                   !- Surface Type
    Interior Floor,          !- Construction Name
    EL4 NNE Perim Plnm (T.NNE28),  !- Zone Name
    ,                        !- Space Name
    Surface,                 !- Outside Boundary Condition
    EL4 Ceiling (T.NNE23.I55)-mirror Reversed,  !- Outside Boundary Condition Object
    NoSun,                   !- Sun Exposure
    NoWind,                  !- Wind Exposure
    ,                        !- View Factor to Ground
    ,                        !- Number of Vertices
    92.79636,16.4592,11.8872,  !- X,Y,Z ==> Vertex 1 {m}
    92.79636,9.150096,11.8872,  !- X,Y,Z ==> Vertex 2 {m}
    69.598032,9.150096,11.8872,  !- X,Y,Z ==> Vertex 3 {m}
    69.598032,16.4592,11.8872;  !- X,Y,Z ==> Vertex 4 {m}

  BuildingSurface:Detailed,
    EL4 Ceiling (T.NNE23.I55)-mirror Reversed,  !- Name
    Ceiling,                 !- Surface Type
    Radiant Interior Ceiling,!- Construction Name
    GuestRm EL4 NNE Perim Spc (T.NNE23),  !- Zone Name
    ,                        !- Space Name
    Surface,                 !- Outside Boundary Condition
    EL4 Ceiling (T.NNE23.I55)-mirror,  !- Outside Boundary Condition Object
    NoSun,                   !- Sun Exposure
    NoWind,                  !- Wind Exposure
    ,                        !- View Factor to Ground
    ,                        !- Number of Vertices
    92.79636,9.150096,11.8872,  !- X,Y,Z ==> Vertex 1 {m}
    92.79636,16.4592,11.8872,  !- X,Y,Z ==> Vertex 2 {m}
    69.598032,16.4592,11.8872,  !- X,Y,Z ==> Vertex 3 {m}
    69.598032,9.150096,11.8872;  !- X,Y,Z ==> Vertex 4 {m}

  BuildingSurface:Detailed,
    EL4 Ceiling (T.S24.I58)-mirror,  !- Name
    Floor,                   !- Surface Type
    Interior Floor,          !- Construction Name
    EL4 South Perim Plnm (T.S29),  !- Zone Name
    ,                        !- Space Name
    Surface,                 !- Outside Boundary Condition
    EL4 Ceiling (T.S24.I58)-mirror Reversed,  !- Outside Boundary Condition Object
    NoSun,                   !- Sun Exposure
    NoWind,                  !- Wind Exposure
    ,                        !- View Factor to Ground
    ,                        !- Number of Vertices
    92.79636,7.309104,11.8872,  !- X,Y,Z ==> Vertex 1 {m}
    92.79636,0,11.8872,  !- X,Y,Z ==> Vertex 2 {m}
    23.198328,0,11.8872,  !- X,Y,Z ==> Vertex 3 {m}
    23.198328,7.309104,11.8872;  !- X,Y,Z ==> Vertex 4 {m}

  BuildingSurface:Detailed,
    EL4 Ceiling (T.S24.I58)-mirror Reversed,  !- Name
    Ceiling,                 !- Surface Type
    Radiant Interior Ceiling,!- Construction Name
    GuestRm EL4 South Perim Spc (T.S24),  !- Zone Name
    ,                        !- Space Name
    Surface,                 !- Outside Boundary Condition
    EL4 Ceiling (T.S24.I58)-mirror,  !- Outside Boundary Condition Object
    NoSun,                   !- Sun Exposure
    NoWind,                  !- Wind Exposure
    ,                        !- View Factor to Ground
    ,                        !- Number of Vertices
    92.79636,0,11.8872,  !- X,Y,Z ==> Vertex 1 {m}
    92.79636,7.309104,11.8872,  !- X,Y,Z ==> Vertex 2 {m}
    23.198328,7.309104,11.8872,  !- X,Y,Z ==> Vertex 3 {m}
    23.198328,0,11.8872;  !- X,Y,Z ==> Vertex 4 {m}

  BuildingSurface:Detailed,
    EL4 Ceiling (T.SSW22.I52)-mirror,  !- Name
    Floor,                   !- Surface Type
    Interior Floor,          !- Construction Name
    EL4 SSW Perim Plnm (T.SSW27),  !- Zone Name
    ,                        !- Space Name
    Surface,                 !- Outside Boundary Condition
    EL4 Ceiling (T.SSW22.I52)-mirror Reversed,  !- Outside Boundary Condition Object
    NoSun,                   !- Sun Exposure
    NoWind,                  !- Wind Exposure
    ,                        !- View Factor to Ground
    ,                        !- Number of Vertices
    23.19829752,7.309104,11.8872,  !- X,Y,Z ==> Vertex 1 {m}
    23.19829752,-3.45682824e-07,11.8872,  !- X,Y,Z ==> Vertex 2 {m}
    0,-3.45682824e-07,11.8872,  !- X,Y,Z ==> Vertex 3 {m}
    0,7.309104,11.8872;  !- X,Y,Z ==> Vertex 4 {m}

  BuildingSurface:Detailed,
    EL4 Ceiling (T.SSW22.I52)-mirror Reversed,  !- Name
    Ceiling,                 !- Surface Type
    Radiant Interior Ceiling,!- Construction Name
    GuestRm EL4 SSW Perim Spc (T.SSW22),  !- Zone Name
    ,                        !- Space Name
    Surface,                 !- Outside Boundary Condition
    EL4 Ceiling (T.SSW22.I52)-mirror,  !- Outside Boundary Condition Object
    NoSun,                   !- Sun Exposure
    NoWind,                  !- Wind Exposure
    ,                        !- View Factor to Ground
    ,                        !- Number of Vertices
    23.19829752,-3.45682824e-07,11.8872,  !- X,Y,Z ==> Vertex 1 {m}
    23.19829752,7.309104,11.8872,  !- X,Y,Z ==> Vertex 2 {m}
    0,7.309104,11.8872,  !- X,Y,Z ==> Vertex 3 {m}
    0,-3.45682824e-07,11.8872;  !- X,Y,Z ==> Vertex 4 {m}

  BuildingSurface:Detailed,
    EL4 Core Spc (G.C5) - Floor_a,  !- Name
    Floor,                   !- Surface Type
    Interior Floor,          !- Construction Name
    Corridor EL4 Core Spc (G.C5),  !- Zone Name
    ,                        !- Space Name
    Surface,                 !- Outside Boundary Condition
    EL4 Core Spc (G.C5) - Floor_a Reversed,  !- Outside Boundary Condition Object
    NoSun,                   !- Sun Exposure
    NoWind,                  !- Wind Exposure
    ,                        !- View Factor to Ground
    ,                        !- Number of Vertices
    92.79636,9.150096,3.6576,  !- X,Y,Z ==> Vertex 1 {m}
    92.79636,7.309104,3.6576,  !- X,Y,Z ==> Vertex 2 {m}
    69.598032,7.309104,3.6576,  !- X,Y,Z ==> Vertex 3 {m}
    69.598032,9.150096,3.6576;  !- X,Y,Z ==> Vertex 4 {m}

  BuildingSurface:Detailed,
    EL4 Core Spc (G.C5) - Floor_a Reversed,  !- Name
    Ceiling,                 !- Surface Type
    Radiant Interior Ceiling,!- Construction Name
    EL1 East Perim Plnm (G.E6),  !- Zone Name
    ,                        !- Space Name
    Surface,                 !- Outside Boundary Condition
    EL4 Core Spc (G.C5) - Floor_a,  !- Outside Boundary Condition Object
    NoSun,                   !- Sun Exposure
    NoWind,                  !- Wind Exposure
    ,                        !- View Factor to Ground
    ,                        !- Number of Vertices
    92.79636,7.309104,3.6576,  !- X,Y,Z ==> Vertex 1 {m}
    92.79636,9.150096,3.6576,  !- X,Y,Z ==> Vertex 2 {m}
    69.598032,9.150096,3.6576,  !- X,Y,Z ==> Vertex 3 {m}
    69.598032,7.309104,3.6576;  !- X,Y,Z ==> Vertex 4 {m}

  BuildingSurface:Detailed,
    EL4 Core Spc (G.C5) - Floor_b,  !- Name
    Floor,                   !- Surface Type
    Interior Floor,          !- Construction Name
    Corridor EL4 Core Spc (G.C5),  !- Zone Name
    ,                        !- Space Name
    Surface,                 !- Outside Boundary Condition
    EL4 Core Spc (G.C5) - Floor_b Reversed,  !- Outside Boundary Condition Object
    NoSun,                   !- Sun Exposure
    NoWind,                  !- Wind Exposure
    ,                        !- View Factor to Ground
    ,                        !- Number of Vertices
    23.19829752,9.150096,3.6576,  !- X,Y,Z ==> Vertex 1 {m}
    23.19829752,7.309104,3.6576,  !- X,Y,Z ==> Vertex 2 {m}
    0,7.309104,3.6576,  !- X,Y,Z ==> Vertex 3 {m}
    0,9.150096,3.6576;  !- X,Y,Z ==> Vertex 4 {m}

  BuildingSurface:Detailed,
    EL4 Core Spc (G.C5) - Floor_b Reversed,  !- Name
    Ceiling,                 !- Surface Type
    Radiant Interior Ceiling,!- Construction Name
    EL1 West Perim Plnm (G.W4),  !- Zone Name
    ,                        !- Space Name
    Surface,                 !- Outside Boundary Condition
    EL4 Core Spc (G.C5) - Floor_b,  !- Outside Boundary Condition Object
    NoSun,                   !- Sun Exposure
    NoWind,                  !- Wind Exposure
    ,                        !- View Factor to Ground
    ,                        !- Number of Vertices
    23.19829752,7.309104,3.6576,  !- X,Y,Z ==> Vertex 1 {m}
    23.19829752,9.150096,3.6576,  !- X,Y,Z ==> Vertex 2 {m}
    0,9.150096,3.6576,  !- X,Y,Z ==> Vertex 3 {m}
    0,7.309104,3.6576;  !- X,Y,Z ==> Vertex 4 {m}

  BuildingSurface:Detailed,
    EL4 East Wall (G.C10.E19),  !- Name
    Wall,                    !- Surface Type
    Exterior Wall,           !- Construction Name
    EL4 Core Plnm (G.C10),   !- Zone Name
    ,                        !- Space Name
    Outdoors,                !- Outside Boundary Condition
    ,                        !- Outside Boundary Condition Object
    SunExposed,              !- Sun Exposure
    WindExposed,             !- Wind Exposure
    ,                        !- View Factor to Ground
    ,                        !- Number of Vertices
    92.79636,7.309104,6.5532,  !- X,Y,Z ==> Vertex 1 {m}
    92.79636,7.309104,6.096,  !- X,Y,Z ==> Vertex 2 {m}
    92.79636,9.150096,6.096,  !- X,Y,Z ==> Vertex 3 {m}
    92.79636,9.150096,6.5532;  !- X,Y,Z ==> Vertex 4 {m}

  BuildingSurface:Detailed,
    EL4 East Wall (G.C5.E9), !- Name
    Wall,                    !- Surface Type
    Exterior Wall,           !- Construction Name
    Corridor EL4 Core Spc (G.C5),  !- Zone Name
    ,                        !- Space Name
    Outdoors,                !- Outside Boundary Condition
    ,                        !- Outside Boundary Condition Object
    SunExposed,              !- Sun Exposure
    WindExposed,             !- Wind Exposure
    ,                        !- View Factor to Ground
    ,                        !- Number of Vertices
    92.79636,7.309104,6.096,  !- X,Y,Z ==> Vertex 1 {m}
    92.79636,7.309104,3.6576,  !- X,Y,Z ==> Vertex 2 {m}
    92.79636,9.150096,3.6576,  !- X,Y,Z ==> Vertex 3 {m}
    92.79636,9.150096,6.096;  !- X,Y,Z ==> Vertex 4 {m}

  BuildingSurface:Detailed,
    EL4 East Wall (G.N1.I3)-mirror,  !- Name
    Wall,                    !- Surface Type
    Interior Wall,           !- Construction Name
    GuestRm EL4 NNE Perim Spc (G.NNE3),  !- Zone Name
    ,                        !- Space Name
    Surface,                 !- Outside Boundary Condition
    EL4 East Wall (G.N1.I3)-mirror Reversed,  !- Outside Boundary Condition Object
    NoSun,                   !- Sun Exposure
    NoWind,                  !- Wind Exposure
    ,                        !- View Factor to Ground
    ,                        !- Number of Vertices
    69.598032,16.4592,6.096,  !- X,Y,Z ==> Vertex 1 {m}
    69.598032,16.4592,3.6576,  !- X,Y,Z ==> Vertex 2 {m}
    69.598032,9.150096,3.6576,  !- X,Y,Z ==> Vertex 3 {m}
    69.598032,9.150096,6.096;  !- X,Y,Z ==> Vertex 4 {m}

  BuildingSurface:Detailed,
    EL4 East Wall (G.N1.I3)-mirror Reversed,  !- Name
    Wall,                    !- Surface Type
    Interior Wall,           !- Construction Name
    GuestRm EL4 North Perim Spc (G.N1),  !- Zone Name
    ,                        !- Space Name
    Surface,                 !- Outside Boundary Condition
    EL4 East Wall (G.N1.I3)-mirror,  !- Outside Boundary Condition Object
    NoSun,                   !- Sun Exposure
    NoWind,                  !- Wind Exposure
    ,                        !- View Factor to Ground
    ,                        !- Number of Vertices
    69.598032,9.150096,6.096,  !- X,Y,Z ==> Vertex 1 {m}
    69.598032,9.150096,3.6576,  !- X,Y,Z ==> Vertex 2 {m}
    69.598032,16.4592,3.6576,  !- X,Y,Z ==> Vertex 3 {m}
    69.598032,16.4592,6.096;  !- X,Y,Z ==> Vertex 4 {m}

  BuildingSurface:Detailed,
    EL4 East Wall (G.N6.I18)-mirror,  !- Name
    Wall,                    !- Surface Type
    Interior Wall,           !- Construction Name
    EL4 NNE Perim Plnm (G.NNE8),  !- Zone Name
    ,                        !- Space Name
    Surface,                 !- Outside Boundary Condition
    EL4 East Wall (G.N6.I18)-mirror Reversed,  !- Outside Boundary Condition Object
    NoSun,                   !- Sun Exposure
    NoWind,                  !- Wind Exposure
    ,                        !- View Factor to Ground
    ,                        !- Number of Vertices
    69.598032,16.4592,6.5532,  !- X,Y,Z ==> Vertex 1 {m}
    69.598032,16.4592,6.096,  !- X,Y,Z ==> Vertex 2 {m}
    69.598032,9.150096,6.096,  !- X,Y,Z ==> Vertex 3 {m}
    69.598032,9.150096,6.5532;  !- X,Y,Z ==> Vertex 4 {m}

  BuildingSurface:Detailed,
    EL4 East Wall (G.N6.I18)-mirror Reversed,  !- Name
    Wall,                    !- Surface Type
    Interior Wall,           !- Construction Name
    EL4 North Perim Plnm (G.N6),  !- Zone Name
    ,                        !- Space Name
    Surface,                 !- Outside Boundary Condition
    EL4 East Wall (G.N6.I18)-mirror,  !- Outside Boundary Condition Object
    NoSun,                   !- Sun Exposure
    NoWind,                  !- Wind Exposure
    ,                        !- View Factor to Ground
    ,                        !- Number of Vertices
    69.598032,9.150096,6.5532,  !- X,Y,Z ==> Vertex 1 {m}
    69.598032,9.150096,6.096,  !- X,Y,Z ==> Vertex 2 {m}
    69.598032,16.4592,6.096,  !- X,Y,Z ==> Vertex 3 {m}
    69.598032,16.4592,6.5532;  !- X,Y,Z ==> Vertex 4 {m}

  BuildingSurface:Detailed,
    EL4 East Wall (G.NNE3.E6),  !- Name
    Wall,                    !- Surface Type
    Exterior Wall,           !- Construction Name
    GuestRm EL4 NNE Perim Spc (G.NNE3),  !- Zone Name
    ,                        !- Space Name
    Outdoors,                !- Outside Boundary Condition
    ,                        !- Outside Boundary Condition Object
    SunExposed,              !- Sun Exposure
    WindExposed,             !- Wind Exposure
    ,                        !- View Factor to Ground
    ,                        !- Number of Vertices
    92.79636,9.150096,6.096,  !- X,Y,Z ==> Vertex 1 {m}
    92.79636,9.150096,3.6576,  !- X,Y,Z ==> Vertex 2 {m}
    92.79636,16.4592,3.6576,  !- X,Y,Z ==> Vertex 3 {m}
    92.79636,16.4592,6.096;  !- X,Y,Z ==> Vertex 4 {m}

  BuildingSurface:Detailed,
    EL4 East Wall (G.NNE8.E16),  !- Name
    Wall,                    !- Surface Type
    Exterior Wall,           !- Construction Name
    EL4 NNE Perim Plnm (G.NNE8),  !- Zone Name
    ,                        !- Space Name
    Outdoors,                !- Outside Boundary Condition
    ,                        !- Outside Boundary Condition Object
    SunExposed,              !- Sun Exposure
    WindExposed,             !- Wind Exposure
    ,                        !- View Factor to Ground
    ,                        !- Number of Vertices
    92.79636,9.150096,6.5532,  !- X,Y,Z ==> Vertex 1 {m}
    92.79636,9.150096,6.096,  !- X,Y,Z ==> Vertex 2 {m}
    92.79636,16.4592,6.096,  !- X,Y,Z ==> Vertex 3 {m}
    92.79636,16.4592,6.5532;  !- X,Y,Z ==> Vertex 4 {m}

  BuildingSurface:Detailed,
    EL4 East Wall (G.S4.E7), !- Name
    Wall,                    !- Surface Type
    Exterior Wall,           !- Construction Name
    GuestRm EL4 South Perim Spc (G.S4),  !- Zone Name
    ,                        !- Space Name
    Outdoors,                !- Outside Boundary Condition
    ,                        !- Outside Boundary Condition Object
    SunExposed,              !- Sun Exposure
    WindExposed,             !- Wind Exposure
    ,                        !- View Factor to Ground
    ,                        !- Number of Vertices
    92.79636,-3.45682824e-07,6.096,  !- X,Y,Z ==> Vertex 1 {m}
    92.79636,-3.45682824e-07,3.6576,  !- X,Y,Z ==> Vertex 2 {m}
    92.79636,7.309104,3.6576,  !- X,Y,Z ==> Vertex 3 {m}
    92.79636,7.309104,6.096;  !- X,Y,Z ==> Vertex 4 {m}

  BuildingSurface:Detailed,
    EL4 East Wall (G.S9.E17),!- Name
    Wall,                    !- Surface Type
    Exterior Wall,           !- Construction Name
    EL4 South Perim Plnm (G.S9),  !- Zone Name
    ,                        !- Space Name
    Outdoors,                !- Outside Boundary Condition
    ,                        !- Outside Boundary Condition Object
    SunExposed,              !- Sun Exposure
    WindExposed,             !- Wind Exposure
    ,                        !- View Factor to Ground
    ,                        !- Number of Vertices
    92.79636,-3.45682824e-07,6.5532,  !- X,Y,Z ==> Vertex 1 {m}
    92.79636,-3.45682824e-07,6.096,  !- X,Y,Z ==> Vertex 2 {m}
    92.79636,7.309104,6.096,  !- X,Y,Z ==> Vertex 3 {m}
    92.79636,7.309104,6.5532;  !- X,Y,Z ==> Vertex 4 {m}

  BuildingSurface:Detailed,
    EL4 East Wall (G.SSW2.I6)-mirror,  !- Name
    Wall,                    !- Surface Type
    Interior Wall,           !- Construction Name
    GuestRm EL4 South Perim Spc (G.S4),  !- Zone Name
    ,                        !- Space Name
    Surface,                 !- Outside Boundary Condition
    EL4 East Wall (G.SSW2.I6)-mirror Reversed,  !- Outside Boundary Condition Object
    NoSun,                   !- Sun Exposure
    NoWind,                  !- Wind Exposure
    ,                        !- View Factor to Ground
    ,                        !- Number of Vertices
    23.198328,7.309104,6.096,  !- X,Y,Z ==> Vertex 1 {m}
    23.198328,7.309104,3.6576,  !- X,Y,Z ==> Vertex 2 {m}
    23.198328,-3.45682824e-07,3.6576,  !- X,Y,Z ==> Vertex 3 {m}
    23.198328,-3.45682824e-07,6.096;  !- X,Y,Z ==> Vertex 4 {m}

  BuildingSurface:Detailed,
    EL4 East Wall (G.SSW2.I6)-mirror Reversed,  !- Name
    Wall,                    !- Surface Type
    Interior Wall,           !- Construction Name
    GuestRm EL4 SSW Perim Spc (G.SSW2),  !- Zone Name
    ,                        !- Space Name
    Surface,                 !- Outside Boundary Condition
    EL4 East Wall (G.SSW2.I6)-mirror,  !- Outside Boundary Condition Object
    NoSun,                   !- Sun Exposure
    NoWind,                  !- Wind Exposure
    ,                        !- View Factor to Ground
    ,                        !- Number of Vertices
    23.198328,-3.45682824e-07,6.096,  !- X,Y,Z ==> Vertex 1 {m}
    23.198328,-3.45682824e-07,3.6576,  !- X,Y,Z ==> Vertex 2 {m}
    23.198328,7.309104,3.6576,  !- X,Y,Z ==> Vertex 3 {m}
    23.198328,7.309104,6.096;  !- X,Y,Z ==> Vertex 4 {m}

  BuildingSurface:Detailed,
    EL4 East Wall (G.SSW7.I19)-mirror,  !- Name
    Wall,                    !- Surface Type
    Interior Wall,           !- Construction Name
    EL4 South Perim Plnm (G.S9),  !- Zone Name
    ,                        !- Space Name
    Surface,                 !- Outside Boundary Condition
    EL4 East Wall (G.SSW7.I19)-mirror Reversed,  !- Outside Boundary Condition Object
    NoSun,                   !- Sun Exposure
    NoWind,                  !- Wind Exposure
    ,                        !- View Factor to Ground
    ,                        !- Number of Vertices
    23.198328,7.309104,6.5532,  !- X,Y,Z ==> Vertex 1 {m}
    23.198328,7.309104,6.096,  !- X,Y,Z ==> Vertex 2 {m}
    23.198328,-3.45682824e-07,6.096,  !- X,Y,Z ==> Vertex 3 {m}
    23.198328,-3.45682824e-07,6.5532;  !- X,Y,Z ==> Vertex 4 {m}

  BuildingSurface:Detailed,
    EL4 East Wall (G.SSW7.I19)-mirror Reversed,  !- Name
    Wall,                    !- Surface Type
    Interior Wall,           !- Construction Name
    EL4 SSW Perim Plnm (G.SSW7),  !- Zone Name
    ,                        !- Space Name
    Surface,                 !- Outside Boundary Condition
    EL4 East Wall (G.SSW7.I19)-mirror,  !- Outside Boundary Condition Object
    NoSun,                   !- Sun Exposure
    NoWind,                  !- Wind Exposure
    ,                        !- View Factor to Ground
    ,                        !- Number of Vertices
    23.198328,-3.45682824e-07,6.5532,  !- X,Y,Z ==> Vertex 1 {m}
    23.198328,-3.45682824e-07,6.096,  !- X,Y,Z ==> Vertex 2 {m}
    23.198328,7.309104,6.096,  !- X,Y,Z ==> Vertex 3 {m}
    23.198328,7.309104,6.5532;  !- X,Y,Z ==> Vertex 4 {m}

  BuildingSurface:Detailed,
    EL4 East Wall (M.C15.E29),  !- Name
    Wall,                    !- Surface Type
    Exterior Wall,           !- Construction Name
    Corridor EL4 Core Spc (M.C15),  !- Zone Name
    ,                        !- Space Name
    Outdoors,                !- Outside Boundary Condition
    ,                        !- Outside Boundary Condition Object
    SunExposed,              !- Sun Exposure
    WindExposed,             !- Wind Exposure
    ,                        !- View Factor to Ground
    ,                        !- Number of Vertices
    92.79636,7.309104,8.9916,  !- X,Y,Z ==> Vertex 1 {m}
    92.79636,7.309104,6.5532,  !- X,Y,Z ==> Vertex 2 {m}
    92.79636,9.150096,6.5532,  !- X,Y,Z ==> Vertex 3 {m}
    92.79636,9.150096,8.9916;  !- X,Y,Z ==> Vertex 4 {m}

  BuildingSurface:Detailed,
    EL4 East Wall (M.C20.E39),  !- Name
    Wall,                    !- Surface Type
    Exterior Wall,           !- Construction Name
    EL4 Core Plnm (M.C20),   !- Zone Name
    ,                        !- Space Name
    Outdoors,                !- Outside Boundary Condition
    ,                        !- Outside Boundary Condition Object
    SunExposed,              !- Sun Exposure
    WindExposed,             !- Wind Exposure
    ,                        !- View Factor to Ground
    ,                        !- Number of Vertices
    92.79636,7.309104,9.4488,  !- X,Y,Z ==> Vertex 1 {m}
    92.79636,7.309104,8.9916,  !- X,Y,Z ==> Vertex 2 {m}
    92.79636,9.150096,8.9916,  !- X,Y,Z ==> Vertex 3 {m}
    92.79636,9.150096,9.4488;  !- X,Y,Z ==> Vertex 4 {m}

  BuildingSurface:Detailed,
    EL4 East Wall (M.N11.I25)-mirror,  !- Name
    Wall,                    !- Surface Type
    Interior Wall,           !- Construction Name
    GuestRm EL4 NNE Perim Spc (M.NNE13),  !- Zone Name
    ,                        !- Space Name
    Surface,                 !- Outside Boundary Condition
    EL4 East Wall (M.N11.I25)-mirror Reversed,  !- Outside Boundary Condition Object
    NoSun,                   !- Sun Exposure
    NoWind,                  !- Wind Exposure
    ,                        !- View Factor to Ground
    ,                        !- Number of Vertices
    69.598032,16.4592,8.9916,  !- X,Y,Z ==> Vertex 1 {m}
    69.598032,16.4592,6.5532,  !- X,Y,Z ==> Vertex 2 {m}
    69.598032,9.150096,6.5532,  !- X,Y,Z ==> Vertex 3 {m}
    69.598032,9.150096,8.9916;  !- X,Y,Z ==> Vertex 4 {m}

  BuildingSurface:Detailed,
    EL4 East Wall (M.N11.I25)-mirror Reversed,  !- Name
    Wall,                    !- Surface Type
    Interior Wall,           !- Construction Name
    GuestRm EL4 North Perim Spc (M.N11),  !- Zone Name
    ,                        !- Space Name
    Surface,                 !- Outside Boundary Condition
    EL4 East Wall (M.N11.I25)-mirror,  !- Outside Boundary Condition Object
    NoSun,                   !- Sun Exposure
    NoWind,                  !- Wind Exposure
    ,                        !- View Factor to Ground
    ,                        !- Number of Vertices
    69.598032,9.150096,8.9916,  !- X,Y,Z ==> Vertex 1 {m}
    69.598032,9.150096,6.5532,  !- X,Y,Z ==> Vertex 2 {m}
    69.598032,16.4592,6.5532,  !- X,Y,Z ==> Vertex 3 {m}
    69.598032,16.4592,8.9916;  !- X,Y,Z ==> Vertex 4 {m}

  BuildingSurface:Detailed,
    EL4 East Wall (M.N16.I40)-mirror,  !- Name
    Wall,                    !- Surface Type
    Interior Wall,           !- Construction Name
    EL4 NNE Perim Plnm (M.NNE18),  !- Zone Name
    ,                        !- Space Name
    Surface,                 !- Outside Boundary Condition
    EL4 East Wall (M.N16.I40)-mirror Reversed,  !- Outside Boundary Condition Object
    NoSun,                   !- Sun Exposure
    NoWind,                  !- Wind Exposure
    ,                        !- View Factor to Ground
    ,                        !- Number of Vertices
    69.598032,16.4592,9.4488,  !- X,Y,Z ==> Vertex 1 {m}
    69.598032,16.4592,8.9916,  !- X,Y,Z ==> Vertex 2 {m}
    69.598032,9.150096,8.9916,  !- X,Y,Z ==> Vertex 3 {m}
    69.598032,9.150096,9.4488;  !- X,Y,Z ==> Vertex 4 {m}

  BuildingSurface:Detailed,
    EL4 East Wall (M.N16.I40)-mirror Reversed,  !- Name
    Wall,                    !- Surface Type
    Interior Wall,           !- Construction Name
    EL4 North Perim Plnm (M.N16),  !- Zone Name
    ,                        !- Space Name
    Surface,                 !- Outside Boundary Condition
    EL4 East Wall (M.N16.I40)-mirror,  !- Outside Boundary Condition Object
    NoSun,                   !- Sun Exposure
    NoWind,                  !- Wind Exposure
    ,                        !- View Factor to Ground
    ,                        !- Number of Vertices
    69.598032,9.150096,9.4488,  !- X,Y,Z ==> Vertex 1 {m}
    69.598032,9.150096,8.9916,  !- X,Y,Z ==> Vertex 2 {m}
    69.598032,16.4592,8.9916,  !- X,Y,Z ==> Vertex 3 {m}
    69.598032,16.4592,9.4488;  !- X,Y,Z ==> Vertex 4 {m}

  BuildingSurface:Detailed,
    EL4 East Wall (M.NNE13.E26),  !- Name
    Wall,                    !- Surface Type
    Exterior Wall,           !- Construction Name
    GuestRm EL4 NNE Perim Spc (M.NNE13),  !- Zone Name
    ,                        !- Space Name
    Outdoors,                !- Outside Boundary Condition
    ,                        !- Outside Boundary Condition Object
    SunExposed,              !- Sun Exposure
    WindExposed,             !- Wind Exposure
    ,                        !- View Factor to Ground
    ,                        !- Number of Vertices
    92.79636,9.150096,8.9916,  !- X,Y,Z ==> Vertex 1 {m}
    92.79636,9.150096,6.5532,  !- X,Y,Z ==> Vertex 2 {m}
    92.79636,16.4592,6.5532,  !- X,Y,Z ==> Vertex 3 {m}
    92.79636,16.4592,8.9916;  !- X,Y,Z ==> Vertex 4 {m}

  BuildingSurface:Detailed,
    EL4 East Wall (M.NNE18.E36),  !- Name
    Wall,                    !- Surface Type
    Exterior Wall,           !- Construction Name
    EL4 NNE Perim Plnm (M.NNE18),  !- Zone Name
    ,                        !- Space Name
    Outdoors,                !- Outside Boundary Condition
    ,                        !- Outside Boundary Condition Object
    SunExposed,              !- Sun Exposure
    WindExposed,             !- Wind Exposure
    ,                        !- View Factor to Ground
    ,                        !- Number of Vertices
    92.79636,9.150096,9.4488,  !- X,Y,Z ==> Vertex 1 {m}
    92.79636,9.150096,8.9916,  !- X,Y,Z ==> Vertex 2 {m}
    92.79636,16.4592,8.9916,  !- X,Y,Z ==> Vertex 3 {m}
    92.79636,16.4592,9.4488;  !- X,Y,Z ==> Vertex 4 {m}

  BuildingSurface:Detailed,
    EL4 East Wall (M.S14.E27),  !- Name
    Wall,                    !- Surface Type
    Exterior Wall,           !- Construction Name
    GuestRm EL4 South Perim Spc (M.S14),  !- Zone Name
    ,                        !- Space Name
    Outdoors,                !- Outside Boundary Condition
    ,                        !- Outside Boundary Condition Object
    SunExposed,              !- Sun Exposure
    WindExposed,             !- Wind Exposure
    ,                        !- View Factor to Ground
    ,                        !- Number of Vertices
    92.79636,-3.45682824e-07,8.9916,  !- X,Y,Z ==> Vertex 1 {m}
    92.79636,-3.45682824e-07,6.5532,  !- X,Y,Z ==> Vertex 2 {m}
    92.79636,7.309104,6.5532,  !- X,Y,Z ==> Vertex 3 {m}
    92.79636,7.309104,8.9916;  !- X,Y,Z ==> Vertex 4 {m}

  BuildingSurface:Detailed,
    EL4 East Wall (M.S19.E37),  !- Name
    Wall,                    !- Surface Type
    Exterior Wall,           !- Construction Name
    EL4 South Perim Plnm (M.S19),  !- Zone Name
    ,                        !- Space Name
    Outdoors,                !- Outside Boundary Condition
    ,                        !- Outside Boundary Condition Object
    SunExposed,              !- Sun Exposure
    WindExposed,             !- Wind Exposure
    ,                        !- View Factor to Ground
    ,                        !- Number of Vertices
    92.79636,0,9.4488,  !- X,Y,Z ==> Vertex 1 {m}
    92.79636,0,8.9916,  !- X,Y,Z ==> Vertex 2 {m}
    92.79636,7.309104,8.9916,  !- X,Y,Z ==> Vertex 3 {m}
    92.79636,7.309104,9.4488;  !- X,Y,Z ==> Vertex 4 {m}

  BuildingSurface:Detailed,
    EL4 East Wall (M.SSW12.I28)-mirror,  !- Name
    Wall,                    !- Surface Type
    Interior Wall,           !- Construction Name
    GuestRm EL4 South Perim Spc (M.S14),  !- Zone Name
    ,                        !- Space Name
    Surface,                 !- Outside Boundary Condition
    EL4 East Wall (M.SSW12.I28)-mirror Reversed,  !- Outside Boundary Condition Object
    NoSun,                   !- Sun Exposure
    NoWind,                  !- Wind Exposure
    ,                        !- View Factor to Ground
    ,                        !- Number of Vertices
    23.198328,7.309104,8.9916,  !- X,Y,Z ==> Vertex 1 {m}
    23.198328,7.309104,6.5532,  !- X,Y,Z ==> Vertex 2 {m}
    23.198328,-3.45682824e-07,6.5532,  !- X,Y,Z ==> Vertex 3 {m}
    23.198328,-3.45682824e-07,8.9916;  !- X,Y,Z ==> Vertex 4 {m}

  BuildingSurface:Detailed,
    EL4 East Wall (M.SSW12.I28)-mirror Reversed,  !- Name
    Wall,                    !- Surface Type
    Interior Wall,           !- Construction Name
    GuestRm EL4 SSW Perim Spc (M.SSW12),  !- Zone Name
    ,                        !- Space Name
    Surface,                 !- Outside Boundary Condition
    EL4 East Wall (M.SSW12.I28)-mirror,  !- Outside Boundary Condition Object
    NoSun,                   !- Sun Exposure
    NoWind,                  !- Wind Exposure
    ,                        !- View Factor to Ground
    ,                        !- Number of Vertices
    23.198328,-3.45682824e-07,8.9916,  !- X,Y,Z ==> Vertex 1 {m}
    23.198328,-3.45682824e-07,6.5532,  !- X,Y,Z ==> Vertex 2 {m}
    23.198328,7.309104,6.5532,  !- X,Y,Z ==> Vertex 3 {m}
    23.198328,7.309104,8.9916;  !- X,Y,Z ==> Vertex 4 {m}

  BuildingSurface:Detailed,
    EL4 East Wall (M.SSW17.I41)-mirror,  !- Name
    Wall,                    !- Surface Type
    Interior Wall,           !- Construction Name
    EL4 South Perim Plnm (M.S19),  !- Zone Name
    ,                        !- Space Name
    Surface,                 !- Outside Boundary Condition
    EL4 East Wall (M.SSW17.I41)-mirror Reversed,  !- Outside Boundary Condition Object
    NoSun,                   !- Sun Exposure
    NoWind,                  !- Wind Exposure
    ,                        !- View Factor to Ground
    ,                        !- Number of Vertices
    23.198328,7.309104,9.4488,  !- X,Y,Z ==> Vertex 1 {m}
    23.198328,7.309104,8.9916,  !- X,Y,Z ==> Vertex 2 {m}
    23.198328,0,8.9916,  !- X,Y,Z ==> Vertex 3 {m}
    23.198328,0,9.4488;  !- X,Y,Z ==> Vertex 4 {m}

  BuildingSurface:Detailed,
    EL4 East Wall (M.SSW17.I41)-mirror Reversed,  !- Name
    Wall,                    !- Surface Type
    Interior Wall,           !- Construction Name
    EL4 SSW Perim Plnm (M.SSW17),  !- Zone Name
    ,                        !- Space Name
    Surface,                 !- Outside Boundary Condition
    EL4 East Wall (M.SSW17.I41)-mirror,  !- Outside Boundary Condition Object
    NoSun,                   !- Sun Exposure
    NoWind,                  !- Wind Exposure
    ,                        !- View Factor to Ground
    ,                        !- Number of Vertices
    23.198328,0,9.4488,  !- X,Y,Z ==> Vertex 1 {m}
    23.198328,0,8.9916,  !- X,Y,Z ==> Vertex 2 {m}
    23.198328,7.309104,8.9916,  !- X,Y,Z ==> Vertex 3 {m}
    23.198328,7.309104,9.4488;  !- X,Y,Z ==> Vertex 4 {m}

  BuildingSurface:Detailed,
    EL4 East Wall (T.C25.E49),  !- Name
    Wall,                    !- Surface Type
    Exterior Wall,           !- Construction Name
    Corridor EL4 Core Spc (T.C25),  !- Zone Name
    ,                        !- Space Name
    Outdoors,                !- Outside Boundary Condition
    ,                        !- Outside Boundary Condition Object
    SunExposed,              !- Sun Exposure
    WindExposed,             !- Wind Exposure
    ,                        !- View Factor to Ground
    ,                        !- Number of Vertices
    92.79636,7.309104,11.8872,  !- X,Y,Z ==> Vertex 1 {m}
    92.79636,7.309104,9.4488,  !- X,Y,Z ==> Vertex 2 {m}
    92.79636,9.150096,9.4488,  !- X,Y,Z ==> Vertex 3 {m}
    92.79636,9.150096,11.8872;  !- X,Y,Z ==> Vertex 4 {m}

  BuildingSurface:Detailed,
    EL4 East Wall (T.C30.E63),  !- Name
    Wall,                    !- Surface Type
    Exterior Wall,           !- Construction Name
    EL4 Core Plnm (T.C30),   !- Zone Name
    ,                        !- Space Name
    Outdoors,                !- Outside Boundary Condition
    ,                        !- Outside Boundary Condition Object
    SunExposed,              !- Sun Exposure
    WindExposed,             !- Wind Exposure
    ,                        !- View Factor to Ground
    ,                        !- Number of Vertices
    92.79636,7.309104,12.3444,  !- X,Y,Z ==> Vertex 1 {m}
    92.79636,7.309104,11.8872,  !- X,Y,Z ==> Vertex 2 {m}
    92.79636,9.150096,11.8872,  !- X,Y,Z ==> Vertex 3 {m}
    92.79636,9.150096,12.3444;  !- X,Y,Z ==> Vertex 4 {m}

  BuildingSurface:Detailed,
    EL4 East Wall (T.N21.I47)-mirror,  !- Name
    Wall,                    !- Surface Type
    Interior Wall,           !- Construction Name
    GuestRm EL4 NNE Perim Spc (T.NNE23),  !- Zone Name
    ,                        !- Space Name
    Surface,                 !- Outside Boundary Condition
    EL4 East Wall (T.N21.I47)-mirror Reversed,  !- Outside Boundary Condition Object
    NoSun,                   !- Sun Exposure
    NoWind,                  !- Wind Exposure
    ,                        !- View Factor to Ground
    ,                        !- Number of Vertices
    69.598032,16.4592,11.8872,  !- X,Y,Z ==> Vertex 1 {m}
    69.598032,16.4592,9.4488,  !- X,Y,Z ==> Vertex 2 {m}
    69.598032,9.150096,9.4488,  !- X,Y,Z ==> Vertex 3 {m}
    69.598032,9.150096,11.8872;  !- X,Y,Z ==> Vertex 4 {m}

  BuildingSurface:Detailed,
    EL4 East Wall (T.N21.I47)-mirror Reversed,  !- Name
    Wall,                    !- Surface Type
    Interior Wall,           !- Construction Name
    GuestRm EL4 North Perim Spc (T.N21),  !- Zone Name
    ,                        !- Space Name
    Surface,                 !- Outside Boundary Condition
    EL4 East Wall (T.N21.I47)-mirror,  !- Outside Boundary Condition Object
    NoSun,                   !- Sun Exposure
    NoWind,                  !- Wind Exposure
    ,                        !- View Factor to Ground
    ,                        !- Number of Vertices
    69.598032,9.150096,11.8872,  !- X,Y,Z ==> Vertex 1 {m}
    69.598032,9.150096,9.4488,  !- X,Y,Z ==> Vertex 2 {m}
    69.598032,16.4592,9.4488,  !- X,Y,Z ==> Vertex 3 {m}
    69.598032,16.4592,11.8872;  !- X,Y,Z ==> Vertex 4 {m}

  BuildingSurface:Detailed,
    EL4 East Wall (T.N26.I62)-mirror,  !- Name
    Wall,                    !- Surface Type
    Interior Wall,           !- Construction Name
    EL4 NNE Perim Plnm (T.NNE28),  !- Zone Name
    ,                        !- Space Name
    Surface,                 !- Outside Boundary Condition
    EL4 East Wall (T.N26.I62)-mirror Reversed,  !- Outside Boundary Condition Object
    NoSun,                   !- Sun Exposure
    NoWind,                  !- Wind Exposure
    ,                        !- View Factor to Ground
    ,                        !- Number of Vertices
    69.598032,16.4592,12.3444,  !- X,Y,Z ==> Vertex 1 {m}
    69.598032,16.4592,11.8872,  !- X,Y,Z ==> Vertex 2 {m}
    69.598032,9.150096,11.8872,  !- X,Y,Z ==> Vertex 3 {m}
    69.598032,9.150096,12.3444;  !- X,Y,Z ==> Vertex 4 {m}

  BuildingSurface:Detailed,
    EL4 East Wall (T.N26.I62)-mirror Reversed,  !- Name
    Wall,                    !- Surface Type
    Interior Wall,           !- Construction Name
    EL4 North Perim Plnm (T.N26),  !- Zone Name
    ,                        !- Space Name
    Surface,                 !- Outside Boundary Condition
    EL4 East Wall (T.N26.I62)-mirror,  !- Outside Boundary Condition Object
    NoSun,                   !- Sun Exposure
    NoWind,                  !- Wind Exposure
    ,                        !- View Factor to Ground
    ,                        !- Number of Vertices
    69.598032,9.150096,12.3444,  !- X,Y,Z ==> Vertex 1 {m}
    69.598032,9.150096,11.8872,  !- X,Y,Z ==> Vertex 2 {m}
    69.598032,16.4592,11.8872,  !- X,Y,Z ==> Vertex 3 {m}
    69.598032,16.4592,12.3444;  !- X,Y,Z ==> Vertex 4 {m}

  BuildingSurface:Detailed,
    EL4 East Wall (T.NNE23.E46),  !- Name
    Wall,                    !- Surface Type
    Exterior Wall,           !- Construction Name
    GuestRm EL4 NNE Perim Spc (T.NNE23),  !- Zone Name
    ,                        !- Space Name
    Outdoors,                !- Outside Boundary Condition
    ,                        !- Outside Boundary Condition Object
    SunExposed,              !- Sun Exposure
    WindExposed,             !- Wind Exposure
    ,                        !- View Factor to Ground
    ,                        !- Number of Vertices
    92.79636,9.150096,11.8872,  !- X,Y,Z ==> Vertex 1 {m}
    92.79636,9.150096,9.4488,  !- X,Y,Z ==> Vertex 2 {m}
    92.79636,16.4592,9.4488,  !- X,Y,Z ==> Vertex 3 {m}
    92.79636,16.4592,11.8872;  !- X,Y,Z ==> Vertex 4 {m}

  BuildingSurface:Detailed,
    EL4 East Wall (T.NNE28.E58),  !- Name
    Wall,                    !- Surface Type
    Exterior Wall,           !- Construction Name
    EL4 NNE Perim Plnm (T.NNE28),  !- Zone Name
    ,                        !- Space Name
    Outdoors,                !- Outside Boundary Condition
    ,                        !- Outside Boundary Condition Object
    SunExposed,              !- Sun Exposure
    WindExposed,             !- Wind Exposure
    ,                        !- View Factor to Ground
    ,                        !- Number of Vertices
    92.79636,9.150096,12.3444,  !- X,Y,Z ==> Vertex 1 {m}
    92.79636,9.150096,11.8872,  !- X,Y,Z ==> Vertex 2 {m}
    92.79636,16.4592,11.8872,  !- X,Y,Z ==> Vertex 3 {m}
    92.79636,16.4592,12.3444;  !- X,Y,Z ==> Vertex 4 {m}

  BuildingSurface:Detailed,
    EL4 East Wall (T.S24.E47),  !- Name
    Wall,                    !- Surface Type
    Exterior Wall,           !- Construction Name
    GuestRm EL4 South Perim Spc (T.S24),  !- Zone Name
    ,                        !- Space Name
    Outdoors,                !- Outside Boundary Condition
    ,                        !- Outside Boundary Condition Object
    SunExposed,              !- Sun Exposure
    WindExposed,             !- Wind Exposure
    ,                        !- View Factor to Ground
    ,                        !- Number of Vertices
    92.79636,0,11.8872,  !- X,Y,Z ==> Vertex 1 {m}
    92.79636,0,9.4488,  !- X,Y,Z ==> Vertex 2 {m}
    92.79636,7.309104,9.4488,  !- X,Y,Z ==> Vertex 3 {m}
    92.79636,7.309104,11.8872;  !- X,Y,Z ==> Vertex 4 {m}

  BuildingSurface:Detailed,
    EL4 East Wall (T.S29.E60),  !- Name
    Wall,                    !- Surface Type
    Exterior Wall,           !- Construction Name
    EL4 South Perim Plnm (T.S29),  !- Zone Name
    ,                        !- Space Name
    Outdoors,                !- Outside Boundary Condition
    ,                        !- Outside Boundary Condition Object
    SunExposed,              !- Sun Exposure
    WindExposed,             !- Wind Exposure
    ,                        !- View Factor to Ground
    ,                        !- Number of Vertices
    92.79636,0,12.3444,  !- X,Y,Z ==> Vertex 1 {m}
    92.79636,0,11.8872,  !- X,Y,Z ==> Vertex 2 {m}
    92.79636,7.309104,11.8872,  !- X,Y,Z ==> Vertex 3 {m}
    92.79636,7.309104,12.3444;  !- X,Y,Z ==> Vertex 4 {m}

  BuildingSurface:Detailed,
    EL4 East Wall (T.SSW22.I50)-mirror,  !- Name
    Wall,                    !- Surface Type
    Interior Wall,           !- Construction Name
    GuestRm EL4 South Perim Spc (T.S24),  !- Zone Name
    ,                        !- Space Name
    Surface,                 !- Outside Boundary Condition
    EL4 East Wall (T.SSW22.I50)-mirror Reversed,  !- Outside Boundary Condition Object
    NoSun,                   !- Sun Exposure
    NoWind,                  !- Wind Exposure
    ,                        !- View Factor to Ground
    ,                        !- Number of Vertices
    23.198328,7.309104,11.8872,  !- X,Y,Z ==> Vertex 1 {m}
    23.198328,7.309104,9.4488,  !- X,Y,Z ==> Vertex 2 {m}
    23.198328,0,9.4488,  !- X,Y,Z ==> Vertex 3 {m}
    23.198328,0,11.8872;  !- X,Y,Z ==> Vertex 4 {m}

  BuildingSurface:Detailed,
    EL4 East Wall (T.SSW22.I50)-mirror Reversed,  !- Name
    Wall,                    !- Surface Type
    Interior Wall,           !- Construction Name
    GuestRm EL4 SSW Perim Spc (T.SSW22),  !- Zone Name
    ,                        !- Space Name
    Surface,                 !- Outside Boundary Condition
    EL4 East Wall (T.SSW22.I50)-mirror,  !- Outside Boundary Condition Object
    NoSun,                   !- Sun Exposure
    NoWind,                  !- Wind Exposure
    ,                        !- View Factor to Ground
    ,                        !- Number of Vertices
    23.198328,0,11.8872,  !- X,Y,Z ==> Vertex 1 {m}
    23.198328,0,9.4488,  !- X,Y,Z ==> Vertex 2 {m}
    23.198328,7.309104,9.4488,  !- X,Y,Z ==> Vertex 3 {m}
    23.198328,7.309104,11.8872;  !- X,Y,Z ==> Vertex 4 {m}

  BuildingSurface:Detailed,
    EL4 East Wall (T.SSW27.I63)-mirror,  !- Name
    Wall,                    !- Surface Type
    Interior Wall,           !- Construction Name
    EL4 South Perim Plnm (T.S29),  !- Zone Name
    ,                        !- Space Name
    Surface,                 !- Outside Boundary Condition
    EL4 East Wall (T.SSW27.I63)-mirror Reversed,  !- Outside Boundary Condition Object
    NoSun,                   !- Sun Exposure
    NoWind,                  !- Wind Exposure
    ,                        !- View Factor to Ground
    ,                        !- Number of Vertices
    23.198328,7.309104,12.3444,  !- X,Y,Z ==> Vertex 1 {m}
    23.198328,7.309104,11.8872,  !- X,Y,Z ==> Vertex 2 {m}
    23.198328,0,11.8872,  !- X,Y,Z ==> Vertex 3 {m}
    23.198328,0,12.3444;  !- X,Y,Z ==> Vertex 4 {m}

  BuildingSurface:Detailed,
    EL4 East Wall (T.SSW27.I63)-mirror Reversed,  !- Name
    Wall,                    !- Surface Type
    Interior Wall,           !- Construction Name
    EL4 SSW Perim Plnm (T.SSW27),  !- Zone Name
    ,                        !- Space Name
    Surface,                 !- Outside Boundary Condition
    EL4 East Wall (T.SSW27.I63)-mirror,  !- Outside Boundary Condition Object
    NoSun,                   !- Sun Exposure
    NoWind,                  !- Wind Exposure
    ,                        !- View Factor to Ground
    ,                        !- Number of Vertices
    23.198328,0,12.3444,  !- X,Y,Z ==> Vertex 1 {m}
    23.198328,0,11.8872,  !- X,Y,Z ==> Vertex 2 {m}
    23.198328,7.309104,11.8872,  !- X,Y,Z ==> Vertex 3 {m}
    23.198328,7.309104,12.3444;  !- X,Y,Z ==> Vertex 4 {m}

  BuildingSurface:Detailed,
    EL4 Flr (G.C5.I15),      !- Name
    Floor,                   !- Surface Type
    Interior Floor,          !- Construction Name
    Corridor EL4 Core Spc (G.C5),  !- Zone Name
    ,                        !- Space Name
    Surface,                 !- Outside Boundary Condition
    EL4 Flr (G.C5.I15) Reversed,  !- Outside Boundary Condition Object
    NoSun,                   !- Sun Exposure
    NoWind,                  !- Wind Exposure
    ,                        !- View Factor to Ground
    ,                        !- Number of Vertices
    69.598032,9.150096,3.6576,  !- X,Y,Z ==> Vertex 1 {m}
    69.598032,7.309104,3.6576,  !- X,Y,Z ==> Vertex 2 {m}
    23.19829752,7.309104,3.6576,  !- X,Y,Z ==> Vertex 3 {m}
    23.19829752,9.150096,3.6576;  !- X,Y,Z ==> Vertex 4 {m}

  BuildingSurface:Detailed,
    EL4 Flr (G.C5.I15) Reversed,  !- Name
    Ceiling,                 !- Surface Type
    Radiant Interior Ceiling,!- Construction Name
    EL1 West Perim Plnm (G.W5),  !- Zone Name
    ,                        !- Space Name
    Surface,                 !- Outside Boundary Condition
    EL4 Flr (G.C5.I15),      !- Outside Boundary Condition Object
    NoSun,                   !- Sun Exposure
    NoWind,                  !- Wind Exposure
    ,                        !- View Factor to Ground
    ,                        !- Number of Vertices
    69.598032,7.309104,3.6576,  !- X,Y,Z ==> Vertex 1 {m}
    69.598032,9.150096,3.6576,  !- X,Y,Z ==> Vertex 2 {m}
    23.19829752,9.150096,3.6576,  !- X,Y,Z ==> Vertex 3 {m}
    23.19829752,7.309104,3.6576;  !- X,Y,Z ==> Vertex 4 {m}

  BuildingSurface:Detailed,
    EL4 Flr (G.N1.I1),       !- Name
    Floor,                   !- Surface Type
    Interior Floor,          !- Construction Name
    GuestRm EL4 North Perim Spc (G.N1),  !- Zone Name
    ,                        !- Space Name
    Surface,                 !- Outside Boundary Condition
    EL4 Flr (G.N1.I1) Reversed,  !- Outside Boundary Condition Object
    NoSun,                   !- Sun Exposure
    NoWind,                  !- Wind Exposure
    ,                        !- View Factor to Ground
    ,                        !- Number of Vertices
    69.598032,16.4592,3.6576,  !- X,Y,Z ==> Vertex 1 {m}
    69.598032,9.150096,3.6576,  !- X,Y,Z ==> Vertex 2 {m}
    23.19829752,9.150096,3.6576,  !- X,Y,Z ==> Vertex 3 {m}
    23.19829752,16.4592,3.6576;  !- X,Y,Z ==> Vertex 4 {m}

  BuildingSurface:Detailed,
    EL4 Flr (G.N1.I1) Reversed,  !- Name
    Ceiling,                 !- Surface Type
    Radiant Interior Ceiling,!- Construction Name
    EL1 West Perim Plnm (G.W5),  !- Zone Name
    ,                        !- Space Name
    Surface,                 !- Outside Boundary Condition
    EL4 Flr (G.N1.I1),       !- Outside Boundary Condition Object
    NoSun,                   !- Sun Exposure
    NoWind,                  !- Wind Exposure
    ,                        !- View Factor to Ground
    ,                        !- Number of Vertices
    69.598032,9.150096,3.6576,  !- X,Y,Z ==> Vertex 1 {m}
    69.598032,16.4592,3.6576,  !- X,Y,Z ==> Vertex 2 {m}
    23.19829752,16.4592,3.6576,  !- X,Y,Z ==> Vertex 3 {m}
    23.19829752,9.150096,3.6576;  !- X,Y,Z ==> Vertex 4 {m}

  BuildingSurface:Detailed,
    EL4 Flr (G.NNE3.I9),     !- Name
    Floor,                   !- Surface Type
    Interior Floor,          !- Construction Name
    GuestRm EL4 NNE Perim Spc (G.NNE3),  !- Zone Name
    ,                        !- Space Name
    Surface,                 !- Outside Boundary Condition
    EL4 Flr (G.NNE3.I9) Reversed,  !- Outside Boundary Condition Object
    NoSun,                   !- Sun Exposure
    NoWind,                  !- Wind Exposure
    ,                        !- View Factor to Ground
    ,                        !- Number of Vertices
    92.79636,16.4592,3.6576,  !- X,Y,Z ==> Vertex 1 {m}
    92.79636,9.150096,3.6576,  !- X,Y,Z ==> Vertex 2 {m}
    69.598032,9.150096,3.6576,  !- X,Y,Z ==> Vertex 3 {m}
    69.598032,16.4592,3.6576;  !- X,Y,Z ==> Vertex 4 {m}

  BuildingSurface:Detailed,
    EL4 Flr (G.NNE3.I9) Reversed,  !- Name
    Ceiling,                 !- Surface Type
    Radiant Interior Ceiling,!- Construction Name
    EL1 East Perim Plnm (G.E6),  !- Zone Name
    ,                        !- Space Name
    Surface,                 !- Outside Boundary Condition
    EL4 Flr (G.NNE3.I9),     !- Outside Boundary Condition Object
    NoSun,                   !- Sun Exposure
    NoWind,                  !- Wind Exposure
    ,                        !- View Factor to Ground
    ,                        !- Number of Vertices
    92.79636,9.150096,3.6576,  !- X,Y,Z ==> Vertex 1 {m}
    92.79636,16.4592,3.6576,  !- X,Y,Z ==> Vertex 2 {m}
    69.598032,16.4592,3.6576,  !- X,Y,Z ==> Vertex 3 {m}
    69.598032,9.150096,3.6576;  !- X,Y,Z ==> Vertex 4 {m}

  BuildingSurface:Detailed,
    EL4 Flr (G.S4.I12),      !- Name
    Floor,                   !- Surface Type
    Interior Floor,          !- Construction Name
    GuestRm EL4 South Perim Spc (G.S4),  !- Zone Name
    ,                        !- Space Name
    Surface,                 !- Outside Boundary Condition
    EL4 Flr (G.S4.I12) Reversed,  !- Outside Boundary Condition Object
    NoSun,                   !- Sun Exposure
    NoWind,                  !- Wind Exposure
    ,                        !- View Factor to Ground
    ,                        !- Number of Vertices
    69.598032,7.309104,3.6576,  !- X,Y,Z ==> Vertex 1 {m}
    69.598032,-3.45682824e-07,3.6576,  !- X,Y,Z ==> Vertex 2 {m}
    23.198328,-3.45682824e-07,3.6576,  !- X,Y,Z ==> Vertex 3 {m}
    23.198328,7.309104,3.6576;  !- X,Y,Z ==> Vertex 4 {m}

  BuildingSurface:Detailed,
    EL4 Flr (G.S4.I12) Reversed,  !- Name
    Ceiling,                 !- Surface Type
    Radiant Interior Ceiling,!- Construction Name
    EL1 West Perim Plnm (G.W5),  !- Zone Name
    ,                        !- Space Name
    Surface,                 !- Outside Boundary Condition
    EL4 Flr (G.S4.I12),      !- Outside Boundary Condition Object
    NoSun,                   !- Sun Exposure
    NoWind,                  !- Wind Exposure
    ,                        !- View Factor to Ground
    ,                        !- Number of Vertices
    69.598032,-3.45682824e-07,3.6576,  !- X,Y,Z ==> Vertex 1 {m}
    69.598032,7.309104,3.6576,  !- X,Y,Z ==> Vertex 2 {m}
    23.198328,7.309104,3.6576,  !- X,Y,Z ==> Vertex 3 {m}
    23.198328,-3.45682824e-07,3.6576;  !- X,Y,Z ==> Vertex 4 {m}

  BuildingSurface:Detailed,
    EL4 Flr (G.SSW2.I5),     !- Name
    Floor,                   !- Surface Type
    Interior Floor,          !- Construction Name
    GuestRm EL4 SSW Perim Spc (G.SSW2),  !- Zone Name
    ,                        !- Space Name
    Surface,                 !- Outside Boundary Condition
    EL4 Flr (G.SSW2.I5) Reversed,  !- Outside Boundary Condition Object
    NoSun,                   !- Sun Exposure
    NoWind,                  !- Wind Exposure
    ,                        !- View Factor to Ground
    ,                        !- Number of Vertices
    23.19829752,7.309104,3.6576,  !- X,Y,Z ==> Vertex 1 {m}
    23.19829752,-3.45682824e-07,3.6576,  !- X,Y,Z ==> Vertex 2 {m}
    0,-3.45682824e-07,3.6576,  !- X,Y,Z ==> Vertex 3 {m}
    0,7.309104,3.6576;  !- X,Y,Z ==> Vertex 4 {m}

  BuildingSurface:Detailed,
    EL4 Flr (G.SSW2.I5) Reversed,  !- Name
    Ceiling,                 !- Surface Type
    Radiant Interior Ceiling,!- Construction Name
    EL1 West Perim Plnm (G.W4),  !- Zone Name
    ,                        !- Space Name
    Surface,                 !- Outside Boundary Condition
    EL4 Flr (G.SSW2.I5),     !- Outside Boundary Condition Object
    NoSun,                   !- Sun Exposure
    NoWind,                  !- Wind Exposure
    ,                        !- View Factor to Ground
    ,                        !- Number of Vertices
    23.19829752,-3.45682824e-07,3.6576,  !- X,Y,Z ==> Vertex 1 {m}
    23.19829752,7.309104,3.6576,  !- X,Y,Z ==> Vertex 2 {m}
    0,7.309104,3.6576,  !- X,Y,Z ==> Vertex 3 {m}
    0,-3.45682824e-07,3.6576;  !- X,Y,Z ==> Vertex 4 {m}

  BuildingSurface:Detailed,
    EL4 Flr (M.C15.I37),     !- Name
    Floor,                   !- Surface Type
    Interior Floor,          !- Construction Name
    Corridor EL4 Core Spc (M.C15),  !- Zone Name
    ,                        !- Space Name
    Surface,                 !- Outside Boundary Condition
    EL4 Flr (M.C15.I37) Reversed,  !- Outside Boundary Condition Object
    NoSun,                   !- Sun Exposure
    NoWind,                  !- Wind Exposure
    ,                        !- View Factor to Ground
    ,                        !- Number of Vertices
    92.79636,9.150096,6.5532,  !- X,Y,Z ==> Vertex 1 {m}
    92.79636,7.309104,6.5532,  !- X,Y,Z ==> Vertex 2 {m}
    0,7.309104,6.5532,  !- X,Y,Z ==> Vertex 3 {m}
    0,9.150096,6.5532;  !- X,Y,Z ==> Vertex 4 {m}

  BuildingSurface:Detailed,
    EL4 Flr (M.C15.I37) Reversed,  !- Name
    Ceiling,                 !- Surface Type
    Radiant Interior Ceiling,!- Construction Name
    EL4 Core Plnm (G.C10),   !- Zone Name
    ,                        !- Space Name
    Surface,                 !- Outside Boundary Condition
    EL4 Flr (M.C15.I37),     !- Outside Boundary Condition Object
    NoSun,                   !- Sun Exposure
    NoWind,                  !- Wind Exposure
    ,                        !- View Factor to Ground
    ,                        !- Number of Vertices
    92.79636,7.309104,6.5532,  !- X,Y,Z ==> Vertex 1 {m}
    92.79636,9.150096,6.5532,  !- X,Y,Z ==> Vertex 2 {m}
    0,9.150096,6.5532,  !- X,Y,Z ==> Vertex 3 {m}
    0,7.309104,6.5532;  !- X,Y,Z ==> Vertex 4 {m}

  BuildingSurface:Detailed,
    EL4 Flr (M.N11.I23),     !- Name
    Floor,                   !- Surface Type
    Interior Floor,          !- Construction Name
    GuestRm EL4 North Perim Spc (M.N11),  !- Zone Name
    ,                        !- Space Name
    Surface,                 !- Outside Boundary Condition
    EL4 Flr (M.N11.I23) Reversed,  !- Outside Boundary Condition Object
    NoSun,                   !- Sun Exposure
    NoWind,                  !- Wind Exposure
    ,                        !- View Factor to Ground
    ,                        !- Number of Vertices
    69.598032,16.4592,6.5532,  !- X,Y,Z ==> Vertex 1 {m}
    69.598032,9.150096,6.5532,  !- X,Y,Z ==> Vertex 2 {m}
    0,9.150096,6.5532,  !- X,Y,Z ==> Vertex 3 {m}
    0,16.4592,6.5532;  !- X,Y,Z ==> Vertex 4 {m}

  BuildingSurface:Detailed,
    EL4 Flr (M.N11.I23) Reversed,  !- Name
    Ceiling,                 !- Surface Type
    Radiant Interior Ceiling,!- Construction Name
    EL4 North Perim Plnm (G.N6),  !- Zone Name
    ,                        !- Space Name
    Surface,                 !- Outside Boundary Condition
    EL4 Flr (M.N11.I23),     !- Outside Boundary Condition Object
    NoSun,                   !- Sun Exposure
    NoWind,                  !- Wind Exposure
    ,                        !- View Factor to Ground
    ,                        !- Number of Vertices
    69.598032,9.150096,6.5532,  !- X,Y,Z ==> Vertex 1 {m}
    69.598032,16.4592,6.5532,  !- X,Y,Z ==> Vertex 2 {m}
    0,16.4592,6.5532,  !- X,Y,Z ==> Vertex 3 {m}
    0,9.150096,6.5532;  !- X,Y,Z ==> Vertex 4 {m}

  BuildingSurface:Detailed,
    EL4 Flr (M.NNE13.I31),   !- Name
    Floor,                   !- Surface Type
    Interior Floor,          !- Construction Name
    GuestRm EL4 NNE Perim Spc (M.NNE13),  !- Zone Name
    ,                        !- Space Name
    Surface,                 !- Outside Boundary Condition
    EL4 Flr (M.NNE13.I31) Reversed,  !- Outside Boundary Condition Object
    NoSun,                   !- Sun Exposure
    NoWind,                  !- Wind Exposure
    ,                        !- View Factor to Ground
    ,                        !- Number of Vertices
    92.79636,16.4592,6.5532,  !- X,Y,Z ==> Vertex 1 {m}
    92.79636,9.150096,6.5532,  !- X,Y,Z ==> Vertex 2 {m}
    69.598032,9.150096,6.5532,  !- X,Y,Z ==> Vertex 3 {m}
    69.598032,16.4592,6.5532;  !- X,Y,Z ==> Vertex 4 {m}

  BuildingSurface:Detailed,
    EL4 Flr (M.NNE13.I31) Reversed,  !- Name
    Ceiling,                 !- Surface Type
    Radiant Interior Ceiling,!- Construction Name
    EL4 NNE Perim Plnm (G.NNE8),  !- Zone Name
    ,                        !- Space Name
    Surface,                 !- Outside Boundary Condition
    EL4 Flr (M.NNE13.I31),   !- Outside Boundary Condition Object
    NoSun,                   !- Sun Exposure
    NoWind,                  !- Wind Exposure
    ,                        !- View Factor to Ground
    ,                        !- Number of Vertices
    92.79636,9.150096,6.5532,  !- X,Y,Z ==> Vertex 1 {m}
    92.79636,16.4592,6.5532,  !- X,Y,Z ==> Vertex 2 {m}
    69.598032,16.4592,6.5532,  !- X,Y,Z ==> Vertex 3 {m}
    69.598032,9.150096,6.5532;  !- X,Y,Z ==> Vertex 4 {m}

  BuildingSurface:Detailed,
    EL4 Flr (M.S14.I34),     !- Name
    Floor,                   !- Surface Type
    Interior Floor,          !- Construction Name
    GuestRm EL4 South Perim Spc (M.S14),  !- Zone Name
    ,                        !- Space Name
    Surface,                 !- Outside Boundary Condition
    EL4 Flr (M.S14.I34) Reversed,  !- Outside Boundary Condition Object
    NoSun,                   !- Sun Exposure
    NoWind,                  !- Wind Exposure
    ,                        !- View Factor to Ground
    ,                        !- Number of Vertices
    92.79636,7.309104,6.5532,  !- X,Y,Z ==> Vertex 1 {m}
    92.79636,-3.45682824e-07,6.5532,  !- X,Y,Z ==> Vertex 2 {m}
    23.198328,-3.45682824e-07,6.5532,  !- X,Y,Z ==> Vertex 3 {m}
    23.198328,7.309104,6.5532;  !- X,Y,Z ==> Vertex 4 {m}

  BuildingSurface:Detailed,
    EL4 Flr (M.S14.I34) Reversed,  !- Name
    Ceiling,                 !- Surface Type
    Radiant Interior Ceiling,!- Construction Name
    EL4 South Perim Plnm (G.S9),  !- Zone Name
    ,                        !- Space Name
    Surface,                 !- Outside Boundary Condition
    EL4 Flr (M.S14.I34),     !- Outside Boundary Condition Object
    NoSun,                   !- Sun Exposure
    NoWind,                  !- Wind Exposure
    ,                        !- View Factor to Ground
    ,                        !- Number of Vertices
    92.79636,-3.45682824e-07,6.5532,  !- X,Y,Z ==> Vertex 1 {m}
    92.79636,7.309104,6.5532,  !- X,Y,Z ==> Vertex 2 {m}
    23.198328,7.309104,6.5532,  !- X,Y,Z ==> Vertex 3 {m}
    23.198328,-3.45682824e-07,6.5532;  !- X,Y,Z ==> Vertex 4 {m}

  BuildingSurface:Detailed,
    EL4 Flr (M.SSW12.I27),   !- Name
    Floor,                   !- Surface Type
    Interior Floor,          !- Construction Name
    GuestRm EL4 SSW Perim Spc (M.SSW12),  !- Zone Name
    ,                        !- Space Name
    Surface,                 !- Outside Boundary Condition
    EL4 Flr (M.SSW12.I27) Reversed,  !- Outside Boundary Condition Object
    NoSun,                   !- Sun Exposure
    NoWind,                  !- Wind Exposure
    ,                        !- View Factor to Ground
    ,                        !- Number of Vertices
    23.19829752,7.309104,6.5532,  !- X,Y,Z ==> Vertex 1 {m}
    23.19829752,-3.45682824e-07,6.5532,  !- X,Y,Z ==> Vertex 2 {m}
    0,-3.45682824e-07,6.5532,  !- X,Y,Z ==> Vertex 3 {m}
    0,7.309104,6.5532;  !- X,Y,Z ==> Vertex 4 {m}

  BuildingSurface:Detailed,
    EL4 Flr (M.SSW12.I27) Reversed,  !- Name
    Ceiling,                 !- Surface Type
    Radiant Interior Ceiling,!- Construction Name
    EL4 SSW Perim Plnm (G.SSW7),  !- Zone Name
    ,                        !- Space Name
    Surface,                 !- Outside Boundary Condition
    EL4 Flr (M.SSW12.I27),   !- Outside Boundary Condition Object
    NoSun,                   !- Sun Exposure
    NoWind,                  !- Wind Exposure
    ,                        !- View Factor to Ground
    ,                        !- Number of Vertices
    23.19829752,-3.45682824e-07,6.5532,  !- X,Y,Z ==> Vertex 1 {m}
    23.19829752,7.309104,6.5532,  !- X,Y,Z ==> Vertex 2 {m}
    0,7.309104,6.5532,  !- X,Y,Z ==> Vertex 3 {m}
    0,-3.45682824e-07,6.5532;  !- X,Y,Z ==> Vertex 4 {m}

  BuildingSurface:Detailed,
    EL4 Flr (T.C25.I59),     !- Name
    Floor,                   !- Surface Type
    Interior Floor,          !- Construction Name
    Corridor EL4 Core Spc (T.C25),  !- Zone Name
    ,                        !- Space Name
    Surface,                 !- Outside Boundary Condition
    EL4 Flr (T.C25.I59) Reversed,  !- Outside Boundary Condition Object
    NoSun,                   !- Sun Exposure
    NoWind,                  !- Wind Exposure
    ,                        !- View Factor to Ground
    ,                        !- Number of Vertices
    92.79636,9.150096,9.4488,  !- X,Y,Z ==> Vertex 1 {m}
    92.79636,7.309104,9.4488,  !- X,Y,Z ==> Vertex 2 {m}
    0,7.309104,9.4488,  !- X,Y,Z ==> Vertex 3 {m}
    0,9.150096,9.4488;  !- X,Y,Z ==> Vertex 4 {m}

  BuildingSurface:Detailed,
    EL4 Flr (T.C25.I59) Reversed,  !- Name
    Ceiling,                 !- Surface Type
    Radiant Interior Ceiling,!- Construction Name
    EL4 Core Plnm (M.C20),   !- Zone Name
    ,                        !- Space Name
    Surface,                 !- Outside Boundary Condition
    EL4 Flr (T.C25.I59),     !- Outside Boundary Condition Object
    NoSun,                   !- Sun Exposure
    NoWind,                  !- Wind Exposure
    ,                        !- View Factor to Ground
    ,                        !- Number of Vertices
    92.79636,7.309104,9.4488,  !- X,Y,Z ==> Vertex 1 {m}
    92.79636,9.150096,9.4488,  !- X,Y,Z ==> Vertex 2 {m}
    0,9.150096,9.4488,  !- X,Y,Z ==> Vertex 3 {m}
    0,7.309104,9.4488;  !- X,Y,Z ==> Vertex 4 {m}

  BuildingSurface:Detailed,
    EL4 Flr (T.N21.I45),     !- Name
    Floor,                   !- Surface Type
    Interior Floor,          !- Construction Name
    GuestRm EL4 North Perim Spc (T.N21),  !- Zone Name
    ,                        !- Space Name
    Surface,                 !- Outside Boundary Condition
    EL4 Flr (T.N21.I45) Reversed,  !- Outside Boundary Condition Object
    NoSun,                   !- Sun Exposure
    NoWind,                  !- Wind Exposure
    ,                        !- View Factor to Ground
    ,                        !- Number of Vertices
    69.598032,16.4592,9.4488,  !- X,Y,Z ==> Vertex 1 {m}
    69.598032,9.150096,9.4488,  !- X,Y,Z ==> Vertex 2 {m}
    0,9.150096,9.4488,  !- X,Y,Z ==> Vertex 3 {m}
    0,16.4592,9.4488;  !- X,Y,Z ==> Vertex 4 {m}

  BuildingSurface:Detailed,
    EL4 Flr (T.N21.I45) Reversed,  !- Name
    Ceiling,                 !- Surface Type
    Radiant Interior Ceiling,!- Construction Name
    EL4 North Perim Plnm (M.N16),  !- Zone Name
    ,                        !- Space Name
    Surface,                 !- Outside Boundary Condition
    EL4 Flr (T.N21.I45),     !- Outside Boundary Condition Object
    NoSun,                   !- Sun Exposure
    NoWind,                  !- Wind Exposure
    ,                        !- View Factor to Ground
    ,                        !- Number of Vertices
    69.598032,9.150096,9.4488,  !- X,Y,Z ==> Vertex 1 {m}
    69.598032,16.4592,9.4488,  !- X,Y,Z ==> Vertex 2 {m}
    0,16.4592,9.4488,  !- X,Y,Z ==> Vertex 3 {m}
    0,9.150096,9.4488;  !- X,Y,Z ==> Vertex 4 {m}

  BuildingSurface:Detailed,
    EL4 Flr (T.NNE23.I53),   !- Name
    Floor,                   !- Surface Type
    Interior Floor,          !- Construction Name
    GuestRm EL4 NNE Perim Spc (T.NNE23),  !- Zone Name
    ,                        !- Space Name
    Surface,                 !- Outside Boundary Condition
    EL4 Flr (T.NNE23.I53) Reversed,  !- Outside Boundary Condition Object
    NoSun,                   !- Sun Exposure
    NoWind,                  !- Wind Exposure
    ,                        !- View Factor to Ground
    ,                        !- Number of Vertices
    92.79636,16.4592,9.4488,  !- X,Y,Z ==> Vertex 1 {m}
    92.79636,9.150096,9.4488,  !- X,Y,Z ==> Vertex 2 {m}
    69.598032,9.150096,9.4488,  !- X,Y,Z ==> Vertex 3 {m}
    69.598032,16.4592,9.4488;  !- X,Y,Z ==> Vertex 4 {m}

  BuildingSurface:Detailed,
    EL4 Flr (T.NNE23.I53) Reversed,  !- Name
    Ceiling,                 !- Surface Type
    Radiant Interior Ceiling,!- Construction Name
    EL4 NNE Perim Plnm (M.NNE18),  !- Zone Name
    ,                        !- Space Name
    Surface,                 !- Outside Boundary Condition
    EL4 Flr (T.NNE23.I53),   !- Outside Boundary Condition Object
    NoSun,                   !- Sun Exposure
    NoWind,                  !- Wind Exposure
    ,                        !- View Factor to Ground
    ,                        !- Number of Vertices
    92.79636,9.150096,9.4488,  !- X,Y,Z ==> Vertex 1 {m}
    92.79636,16.4592,9.4488,  !- X,Y,Z ==> Vertex 2 {m}
    69.598032,16.4592,9.4488,  !- X,Y,Z ==> Vertex 3 {m}
    69.598032,9.150096,9.4488;  !- X,Y,Z ==> Vertex 4 {m}

  BuildingSurface:Detailed,
    EL4 Flr (T.S24.I56),     !- Name
    Floor,                   !- Surface Type
    Interior Floor,          !- Construction Name
    GuestRm EL4 South Perim Spc (T.S24),  !- Zone Name
    ,                        !- Space Name
    Surface,                 !- Outside Boundary Condition
    EL4 Flr (T.S24.I56) Reversed,  !- Outside Boundary Condition Object
    NoSun,                   !- Sun Exposure
    NoWind,                  !- Wind Exposure
    ,                        !- View Factor to Ground
    ,                        !- Number of Vertices
    92.79636,7.309104,9.4488,  !- X,Y,Z ==> Vertex 1 {m}
    92.79636,0,9.4488,  !- X,Y,Z ==> Vertex 2 {m}
    23.198328,0,9.4488,  !- X,Y,Z ==> Vertex 3 {m}
    23.198328,7.309104,9.4488;  !- X,Y,Z ==> Vertex 4 {m}

  BuildingSurface:Detailed,
    EL4 Flr (T.S24.I56) Reversed,  !- Name
    Ceiling,                 !- Surface Type
    Radiant Interior Ceiling,!- Construction Name
    EL4 South Perim Plnm (M.S19),  !- Zone Name
    ,                        !- Space Name
    Surface,                 !- Outside Boundary Condition
    EL4 Flr (T.S24.I56),     !- Outside Boundary Condition Object
    NoSun,                   !- Sun Exposure
    NoWind,                  !- Wind Exposure
    ,                        !- View Factor to Ground
    ,                        !- Number of Vertices
    92.79636,0,9.4488,  !- X,Y,Z ==> Vertex 1 {m}
    92.79636,7.309104,9.4488,  !- X,Y,Z ==> Vertex 2 {m}
    23.198328,7.309104,9.4488,  !- X,Y,Z ==> Vertex 3 {m}
    23.198328,0,9.4488;  !- X,Y,Z ==> Vertex 4 {m}

  BuildingSurface:Detailed,
    EL4 Flr (T.SSW22.I49),   !- Name
    Floor,                   !- Surface Type
    Interior Floor,          !- Construction Name
    GuestRm EL4 SSW Perim Spc (T.SSW22),  !- Zone Name
    ,                        !- Space Name
    Surface,                 !- Outside Boundary Condition
    EL4 Flr (T.SSW22.I49) Reversed,  !- Outside Boundary Condition Object
    NoSun,                   !- Sun Exposure
    NoWind,                  !- Wind Exposure
    ,                        !- View Factor to Ground
    ,                        !- Number of Vertices
    23.19829752,7.309104,9.4488,  !- X,Y,Z ==> Vertex 1 {m}
    23.19829752,-3.45682824e-07,9.4488,  !- X,Y,Z ==> Vertex 2 {m}
    0,-3.45682824e-07,9.4488,  !- X,Y,Z ==> Vertex 3 {m}
    0,7.309104,9.4488;  !- X,Y,Z ==> Vertex 4 {m}

  BuildingSurface:Detailed,
    EL4 Flr (T.SSW22.I49) Reversed,  !- Name
    Ceiling,                 !- Surface Type
    Radiant Interior Ceiling,!- Construction Name
    EL4 SSW Perim Plnm (M.SSW17),  !- Zone Name
    ,                        !- Space Name
    Surface,                 !- Outside Boundary Condition
    EL4 Flr (T.SSW22.I49),   !- Outside Boundary Condition Object
    NoSun,                   !- Sun Exposure
    NoWind,                  !- Wind Exposure
    ,                        !- View Factor to Ground
    ,                        !- Number of Vertices
    23.19829752,-3.45682824e-07,9.4488,  !- X,Y,Z ==> Vertex 1 {m}
    23.19829752,7.309104,9.4488,  !- X,Y,Z ==> Vertex 2 {m}
    0,7.309104,9.4488,  !- X,Y,Z ==> Vertex 3 {m}
    0,-3.45682824e-07,9.4488;  !- X,Y,Z ==> Vertex 4 {m}

  BuildingSurface:Detailed,
    EL4 North Perim Spc (G.N1) - Floor_a,  !- Name
    Floor,                   !- Surface Type
    Interior Floor,          !- Construction Name
    GuestRm EL4 North Perim Spc (G.N1),  !- Zone Name
    ,                        !- Space Name
    Surface,                 !- Outside Boundary Condition
    EL4 North Perim Spc (G.N1) - Floor_a Reversed,  !- Outside Boundary Condition Object
    NoSun,                   !- Sun Exposure
    NoWind,                  !- Wind Exposure
    ,                        !- View Factor to Ground
    ,                        !- Number of Vertices
    23.19829752,16.4592,3.6576,  !- X,Y,Z ==> Vertex 1 {m}
    23.19829752,9.150096,3.6576,  !- X,Y,Z ==> Vertex 2 {m}
    0,9.150096,3.6576,  !- X,Y,Z ==> Vertex 3 {m}
    0,16.4592,3.6576;  !- X,Y,Z ==> Vertex 4 {m}

  BuildingSurface:Detailed,
    EL4 North Perim Spc (G.N1) - Floor_a Reversed,  !- Name
    Ceiling,                 !- Surface Type
    Radiant Interior Ceiling,!- Construction Name
    EL1 West Perim Plnm (G.W4),  !- Zone Name
    ,                        !- Space Name
    Surface,                 !- Outside Boundary Condition
    EL4 North Perim Spc (G.N1) - Floor_a,  !- Outside Boundary Condition Object
    NoSun,                   !- Sun Exposure
    NoWind,                  !- Wind Exposure
    ,                        !- View Factor to Ground
    ,                        !- Number of Vertices
    23.19829752,9.150096,3.6576,  !- X,Y,Z ==> Vertex 1 {m}
    23.19829752,16.4592,3.6576,  !- X,Y,Z ==> Vertex 2 {m}
    0,16.4592,3.6576,  !- X,Y,Z ==> Vertex 3 {m}
    0,9.150096,3.6576;  !- X,Y,Z ==> Vertex 4 {m}

  BuildingSurface:Detailed,
    EL4 North Wall (G.N1.E2),!- Name
    Wall,                    !- Surface Type
    Exterior Wall,           !- Construction Name
    GuestRm EL4 North Perim Spc (G.N1),  !- Zone Name
    ,                        !- Space Name
    Outdoors,                !- Outside Boundary Condition
    ,                        !- Outside Boundary Condition Object
    SunExposed,              !- Sun Exposure
    WindExposed,             !- Wind Exposure
    ,                        !- View Factor to Ground
    ,                        !- Number of Vertices
    69.598032,16.4592,6.096,  !- X,Y,Z ==> Vertex 1 {m}
    69.598032,16.4592,3.6576,  !- X,Y,Z ==> Vertex 2 {m}
    0,16.4592,3.6576,  !- X,Y,Z ==> Vertex 3 {m}
    0,16.4592,6.096;  !- X,Y,Z ==> Vertex 4 {m}

  BuildingSurface:Detailed,
    EL4 North Wall (G.N6.E12),  !- Name
    Wall,                    !- Surface Type
    Exterior Wall,           !- Construction Name
    EL4 North Perim Plnm (G.N6),  !- Zone Name
    ,                        !- Space Name
    Outdoors,                !- Outside Boundary Condition
    ,                        !- Outside Boundary Condition Object
    SunExposed,              !- Sun Exposure
    WindExposed,             !- Wind Exposure
    ,                        !- View Factor to Ground
    ,                        !- Number of Vertices
    69.598032,16.4592,6.5532,  !- X,Y,Z ==> Vertex 1 {m}
    69.598032,16.4592,6.096,  !- X,Y,Z ==> Vertex 2 {m}
    0,16.4592,6.096,  !- X,Y,Z ==> Vertex 3 {m}
    0,16.4592,6.5532;  !- X,Y,Z ==> Vertex 4 {m}

  BuildingSurface:Detailed,
    EL4 North Wall (G.NNE3.E5),  !- Name
    Wall,                    !- Surface Type
    Exterior Wall,           !- Construction Name
    GuestRm EL4 NNE Perim Spc (G.NNE3),  !- Zone Name
    ,                        !- Space Name
    Outdoors,                !- Outside Boundary Condition
    ,                        !- Outside Boundary Condition Object
    SunExposed,              !- Sun Exposure
    WindExposed,             !- Wind Exposure
    ,                        !- View Factor to Ground
    ,                        !- Number of Vertices
    92.79636,16.4592,6.096,  !- X,Y,Z ==> Vertex 1 {m}
    92.79636,16.4592,3.6576,  !- X,Y,Z ==> Vertex 2 {m}
    69.598032,16.4592,3.6576,  !- X,Y,Z ==> Vertex 3 {m}
    69.598032,16.4592,6.096;  !- X,Y,Z ==> Vertex 4 {m}

  BuildingSurface:Detailed,
    EL4 North Wall (G.NNE8.E15),  !- Name
    Wall,                    !- Surface Type
    Exterior Wall,           !- Construction Name
    EL4 NNE Perim Plnm (G.NNE8),  !- Zone Name
    ,                        !- Space Name
    Outdoors,                !- Outside Boundary Condition
    ,                        !- Outside Boundary Condition Object
    SunExposed,              !- Sun Exposure
    WindExposed,             !- Wind Exposure
    ,                        !- View Factor to Ground
    ,                        !- Number of Vertices
    92.79636,16.4592,6.5532,  !- X,Y,Z ==> Vertex 1 {m}
    92.79636,16.4592,6.096,  !- X,Y,Z ==> Vertex 2 {m}
    69.598032,16.4592,6.096,  !- X,Y,Z ==> Vertex 3 {m}
    69.598032,16.4592,6.5532;  !- X,Y,Z ==> Vertex 4 {m}

  BuildingSurface:Detailed,
    EL4 North Wall (G.S4.I13)-mirror,  !- Name
    Wall,                    !- Surface Type
    Interior Wall,           !- Construction Name
    Corridor EL4 Core Spc (G.C5),  !- Zone Name
    ,                        !- Space Name
    Surface,                 !- Outside Boundary Condition
    EL4 North Wall (G.S4.I13)-mirror Reversed,  !- Outside Boundary Condition Object
    NoSun,                   !- Sun Exposure
    NoWind,                  !- Wind Exposure
    ,                        !- View Factor to Ground
    ,                        !- Number of Vertices
    23.19829752,7.309104,6.096,  !- X,Y,Z ==> Vertex 1 {m}
    23.19829752,7.309104,3.6576,  !- X,Y,Z ==> Vertex 2 {m}
    92.79636,7.309104,3.6576,  !- X,Y,Z ==> Vertex 3 {m}
    92.79636,7.309104,6.096;  !- X,Y,Z ==> Vertex 4 {m}

  BuildingSurface:Detailed,
    EL4 North Wall (G.S4.I13)-mirror Reversed,  !- Name
    Wall,                    !- Surface Type
    Interior Wall,           !- Construction Name
    GuestRm EL4 South Perim Spc (G.S4),  !- Zone Name
    ,                        !- Space Name
    Surface,                 !- Outside Boundary Condition
    EL4 North Wall (G.S4.I13)-mirror,  !- Outside Boundary Condition Object
    NoSun,                   !- Sun Exposure
    NoWind,                  !- Wind Exposure
    ,                        !- View Factor to Ground
    ,                        !- Number of Vertices
    92.79636,7.309104,6.096,  !- X,Y,Z ==> Vertex 1 {m}
    92.79636,7.309104,3.6576,  !- X,Y,Z ==> Vertex 2 {m}
    23.19829752,7.309104,3.6576,  !- X,Y,Z ==> Vertex 3 {m}
    23.19829752,7.309104,6.096;  !- X,Y,Z ==> Vertex 4 {m}

  BuildingSurface:Detailed,
    EL4 North Wall (G.S9.I22)-mirror,  !- Name
    Wall,                    !- Surface Type
    Interior Wall,           !- Construction Name
    EL4 Core Plnm (G.C10),   !- Zone Name
    ,                        !- Space Name
    Surface,                 !- Outside Boundary Condition
    EL4 North Wall (G.S9.I22)-mirror Reversed,  !- Outside Boundary Condition Object
    NoSun,                   !- Sun Exposure
    NoWind,                  !- Wind Exposure
    ,                        !- View Factor to Ground
    ,                        !- Number of Vertices
    23.19829752,7.309104,6.5532,  !- X,Y,Z ==> Vertex 1 {m}
    23.19829752,7.309104,6.096,  !- X,Y,Z ==> Vertex 2 {m}
    92.79636,7.309104,6.096,  !- X,Y,Z ==> Vertex 3 {m}
    92.79636,7.309104,6.5532;  !- X,Y,Z ==> Vertex 4 {m}

  BuildingSurface:Detailed,
    EL4 North Wall (G.S9.I22)-mirror Reversed,  !- Name
    Wall,                    !- Surface Type
    Interior Wall,           !- Construction Name
    EL4 South Perim Plnm (G.S9),  !- Zone Name
    ,                        !- Space Name
    Surface,                 !- Outside Boundary Condition
    EL4 North Wall (G.S9.I22)-mirror,  !- Outside Boundary Condition Object
    NoSun,                   !- Sun Exposure
    NoWind,                  !- Wind Exposure
    ,                        !- View Factor to Ground
    ,                        !- Number of Vertices
    92.79636,7.309104,6.5532,  !- X,Y,Z ==> Vertex 1 {m}
    92.79636,7.309104,6.096,  !- X,Y,Z ==> Vertex 2 {m}
    23.19829752,7.309104,6.096,  !- X,Y,Z ==> Vertex 3 {m}
    23.19829752,7.309104,6.5532;  !- X,Y,Z ==> Vertex 4 {m}

  BuildingSurface:Detailed,
    EL4 North Wall (G.SSW2.I7)-mirror,  !- Name
    Wall,                    !- Surface Type
    Interior Wall,           !- Construction Name
    Corridor EL4 Core Spc (G.C5),  !- Zone Name
    ,                        !- Space Name
    Surface,                 !- Outside Boundary Condition
    EL4 North Wall (G.SSW2.I7)-mirror Reversed,  !- Outside Boundary Condition Object
    NoSun,                   !- Sun Exposure
    NoWind,                  !- Wind Exposure
    ,                        !- View Factor to Ground
    ,                        !- Number of Vertices
    0,7.309104,6.096,  !- X,Y,Z ==> Vertex 1 {m}
    0,7.309104,3.6576,  !- X,Y,Z ==> Vertex 2 {m}
    23.19829752,7.309104,3.6576,  !- X,Y,Z ==> Vertex 3 {m}
    23.19829752,7.309104,6.096;  !- X,Y,Z ==> Vertex 4 {m}

  BuildingSurface:Detailed,
    EL4 North Wall (G.SSW2.I7)-mirror Reversed,  !- Name
    Wall,                    !- Surface Type
    Interior Wall,           !- Construction Name
    GuestRm EL4 SSW Perim Spc (G.SSW2),  !- Zone Name
    ,                        !- Space Name
    Surface,                 !- Outside Boundary Condition
    EL4 North Wall (G.SSW2.I7)-mirror,  !- Outside Boundary Condition Object
    NoSun,                   !- Sun Exposure
    NoWind,                  !- Wind Exposure
    ,                        !- View Factor to Ground
    ,                        !- Number of Vertices
    23.19829752,7.309104,6.096,  !- X,Y,Z ==> Vertex 1 {m}
    23.19829752,7.309104,3.6576,  !- X,Y,Z ==> Vertex 2 {m}
    0,7.309104,3.6576,  !- X,Y,Z ==> Vertex 3 {m}
    0,7.309104,6.096;  !- X,Y,Z ==> Vertex 4 {m}

  BuildingSurface:Detailed,
    EL4 North Wall (G.SSW7.I20)-mirror,  !- Name
    Wall,                    !- Surface Type
    Interior Wall,           !- Construction Name
    EL4 Core Plnm (G.C10),   !- Zone Name
    ,                        !- Space Name
    Surface,                 !- Outside Boundary Condition
    EL4 North Wall (G.SSW7.I20)-mirror Reversed,  !- Outside Boundary Condition Object
    NoSun,                   !- Sun Exposure
    NoWind,                  !- Wind Exposure
    ,                        !- View Factor to Ground
    ,                        !- Number of Vertices
    0,7.309104,6.5532,  !- X,Y,Z ==> Vertex 1 {m}
    0,7.309104,6.096,  !- X,Y,Z ==> Vertex 2 {m}
    23.19829752,7.309104,6.096,  !- X,Y,Z ==> Vertex 3 {m}
    23.19829752,7.309104,6.5532;  !- X,Y,Z ==> Vertex 4 {m}

  BuildingSurface:Detailed,
    EL4 North Wall (G.SSW7.I20)-mirror Reversed,  !- Name
    Wall,                    !- Surface Type
    Interior Wall,           !- Construction Name
    EL4 SSW Perim Plnm (G.SSW7),  !- Zone Name
    ,                        !- Space Name
    Surface,                 !- Outside Boundary Condition
    EL4 North Wall (G.SSW7.I20)-mirror,  !- Outside Boundary Condition Object
    NoSun,                   !- Sun Exposure
    NoWind,                  !- Wind Exposure
    ,                        !- View Factor to Ground
    ,                        !- Number of Vertices
    23.19829752,7.309104,6.5532,  !- X,Y,Z ==> Vertex 1 {m}
    23.19829752,7.309104,6.096,  !- X,Y,Z ==> Vertex 2 {m}
    0,7.309104,6.096,  !- X,Y,Z ==> Vertex 3 {m}
    0,7.309104,6.5532;  !- X,Y,Z ==> Vertex 4 {m}

  BuildingSurface:Detailed,
    EL4 North Wall (M.N11.E22),  !- Name
    Wall,                    !- Surface Type
    Exterior Wall,           !- Construction Name
    GuestRm EL4 North Perim Spc (M.N11),  !- Zone Name
    ,                        !- Space Name
    Outdoors,                !- Outside Boundary Condition
    ,                        !- Outside Boundary Condition Object
    SunExposed,              !- Sun Exposure
    WindExposed,             !- Wind Exposure
    ,                        !- View Factor to Ground
    ,                        !- Number of Vertices
    69.598032,16.4592,8.9916,  !- X,Y,Z ==> Vertex 1 {m}
    69.598032,16.4592,6.5532,  !- X,Y,Z ==> Vertex 2 {m}
    0,16.4592,6.5532,  !- X,Y,Z ==> Vertex 3 {m}
    0,16.4592,8.9916;  !- X,Y,Z ==> Vertex 4 {m}

  BuildingSurface:Detailed,
    EL4 North Wall (M.N16.E32),  !- Name
    Wall,                    !- Surface Type
    Exterior Wall,           !- Construction Name
    EL4 North Perim Plnm (M.N16),  !- Zone Name
    ,                        !- Space Name
    Outdoors,                !- Outside Boundary Condition
    ,                        !- Outside Boundary Condition Object
    SunExposed,              !- Sun Exposure
    WindExposed,             !- Wind Exposure
    ,                        !- View Factor to Ground
    ,                        !- Number of Vertices
    69.598032,16.4592,9.4488,  !- X,Y,Z ==> Vertex 1 {m}
    69.598032,16.4592,8.9916,  !- X,Y,Z ==> Vertex 2 {m}
    0,16.4592,8.9916,  !- X,Y,Z ==> Vertex 3 {m}
    0,16.4592,9.4488;  !- X,Y,Z ==> Vertex 4 {m}

  BuildingSurface:Detailed,
    EL4 North Wall (M.NNE13.E25),  !- Name
    Wall,                    !- Surface Type
    Exterior Wall,           !- Construction Name
    GuestRm EL4 NNE Perim Spc (M.NNE13),  !- Zone Name
    ,                        !- Space Name
    Outdoors,                !- Outside Boundary Condition
    ,                        !- Outside Boundary Condition Object
    SunExposed,              !- Sun Exposure
    WindExposed,             !- Wind Exposure
    ,                        !- View Factor to Ground
    ,                        !- Number of Vertices
    92.79636,16.4592,8.9916,  !- X,Y,Z ==> Vertex 1 {m}
    92.79636,16.4592,6.5532,  !- X,Y,Z ==> Vertex 2 {m}
    69.598032,16.4592,6.5532,  !- X,Y,Z ==> Vertex 3 {m}
    69.598032,16.4592,8.9916;  !- X,Y,Z ==> Vertex 4 {m}

  BuildingSurface:Detailed,
    EL4 North Wall (M.NNE18.E35),  !- Name
    Wall,                    !- Surface Type
    Exterior Wall,           !- Construction Name
    EL4 NNE Perim Plnm (M.NNE18),  !- Zone Name
    ,                        !- Space Name
    Outdoors,                !- Outside Boundary Condition
    ,                        !- Outside Boundary Condition Object
    SunExposed,              !- Sun Exposure
    WindExposed,             !- Wind Exposure
    ,                        !- View Factor to Ground
    ,                        !- Number of Vertices
    92.79636,16.4592,9.4488,  !- X,Y,Z ==> Vertex 1 {m}
    92.79636,16.4592,8.9916,  !- X,Y,Z ==> Vertex 2 {m}
    69.598032,16.4592,8.9916,  !- X,Y,Z ==> Vertex 3 {m}
    69.598032,16.4592,9.4488;  !- X,Y,Z ==> Vertex 4 {m}

  BuildingSurface:Detailed,
    EL4 North Wall (M.S14.I35)-mirror,  !- Name
    Wall,                    !- Surface Type
    Interior Wall,           !- Construction Name
    Corridor EL4 Core Spc (M.C15),  !- Zone Name
    ,                        !- Space Name
    Surface,                 !- Outside Boundary Condition
    EL4 North Wall (M.S14.I35)-mirror Reversed,  !- Outside Boundary Condition Object
    NoSun,                   !- Sun Exposure
    NoWind,                  !- Wind Exposure
    ,                        !- View Factor to Ground
    ,                        !- Number of Vertices
    23.19829752,7.309104,8.9916,  !- X,Y,Z ==> Vertex 1 {m}
    23.19829752,7.309104,6.5532,  !- X,Y,Z ==> Vertex 2 {m}
    92.79636,7.309104,6.5532,  !- X,Y,Z ==> Vertex 3 {m}
    92.79636,7.309104,8.9916;  !- X,Y,Z ==> Vertex 4 {m}

  BuildingSurface:Detailed,
    EL4 North Wall (M.S14.I35)-mirror Reversed,  !- Name
    Wall,                    !- Surface Type
    Interior Wall,           !- Construction Name
    GuestRm EL4 South Perim Spc (M.S14),  !- Zone Name
    ,                        !- Space Name
    Surface,                 !- Outside Boundary Condition
    EL4 North Wall (M.S14.I35)-mirror,  !- Outside Boundary Condition Object
    NoSun,                   !- Sun Exposure
    NoWind,                  !- Wind Exposure
    ,                        !- View Factor to Ground
    ,                        !- Number of Vertices
    92.79636,7.309104,8.9916,  !- X,Y,Z ==> Vertex 1 {m}
    92.79636,7.309104,6.5532,  !- X,Y,Z ==> Vertex 2 {m}
    23.19829752,7.309104,6.5532,  !- X,Y,Z ==> Vertex 3 {m}
    23.19829752,7.309104,8.9916;  !- X,Y,Z ==> Vertex 4 {m}

  BuildingSurface:Detailed,
    EL4 North Wall (M.S19.I44)-mirror,  !- Name
    Wall,                    !- Surface Type
    Interior Wall,           !- Construction Name
    EL4 Core Plnm (M.C20),   !- Zone Name
    ,                        !- Space Name
    Surface,                 !- Outside Boundary Condition
    EL4 North Wall (M.S19.I44)-mirror Reversed,  !- Outside Boundary Condition Object
    NoSun,                   !- Sun Exposure
    NoWind,                  !- Wind Exposure
    ,                        !- View Factor to Ground
    ,                        !- Number of Vertices
    23.19829752,7.309104,9.4488,  !- X,Y,Z ==> Vertex 1 {m}
    23.19829752,7.309104,8.9916,  !- X,Y,Z ==> Vertex 2 {m}
    92.79636,7.309104,8.9916,  !- X,Y,Z ==> Vertex 3 {m}
    92.79636,7.309104,9.4488;  !- X,Y,Z ==> Vertex 4 {m}

  BuildingSurface:Detailed,
    EL4 North Wall (M.S19.I44)-mirror Reversed,  !- Name
    Wall,                    !- Surface Type
    Interior Wall,           !- Construction Name
    EL4 South Perim Plnm (M.S19),  !- Zone Name
    ,                        !- Space Name
    Surface,                 !- Outside Boundary Condition
    EL4 North Wall (M.S19.I44)-mirror,  !- Outside Boundary Condition Object
    NoSun,                   !- Sun Exposure
    NoWind,                  !- Wind Exposure
    ,                        !- View Factor to Ground
    ,                        !- Number of Vertices
    92.79636,7.309104,9.4488,  !- X,Y,Z ==> Vertex 1 {m}
    92.79636,7.309104,8.9916,  !- X,Y,Z ==> Vertex 2 {m}
    23.19829752,7.309104,8.9916,  !- X,Y,Z ==> Vertex 3 {m}
    23.19829752,7.309104,9.4488;  !- X,Y,Z ==> Vertex 4 {m}

  BuildingSurface:Detailed,
    EL4 North Wall (M.SSW12.I29)-mirror,  !- Name
    Wall,                    !- Surface Type
    Interior Wall,           !- Construction Name
    Corridor EL4 Core Spc (M.C15),  !- Zone Name
    ,                        !- Space Name
    Surface,                 !- Outside Boundary Condition
    EL4 North Wall (M.SSW12.I29)-mirror Reversed,  !- Outside Boundary Condition Object
    NoSun,                   !- Sun Exposure
    NoWind,                  !- Wind Exposure
    ,                        !- View Factor to Ground
    ,                        !- Number of Vertices
    0,7.309104,8.9916,  !- X,Y,Z ==> Vertex 1 {m}
    0,7.309104,6.5532,  !- X,Y,Z ==> Vertex 2 {m}
    23.19829752,7.309104,6.5532,  !- X,Y,Z ==> Vertex 3 {m}
    23.19829752,7.309104,8.9916;  !- X,Y,Z ==> Vertex 4 {m}

  BuildingSurface:Detailed,
    EL4 North Wall (M.SSW12.I29)-mirror Reversed,  !- Name
    Wall,                    !- Surface Type
    Interior Wall,           !- Construction Name
    GuestRm EL4 SSW Perim Spc (M.SSW12),  !- Zone Name
    ,                        !- Space Name
    Surface,                 !- Outside Boundary Condition
    EL4 North Wall (M.SSW12.I29)-mirror,  !- Outside Boundary Condition Object
    NoSun,                   !- Sun Exposure
    NoWind,                  !- Wind Exposure
    ,                        !- View Factor to Ground
    ,                        !- Number of Vertices
    23.19829752,7.309104,8.9916,  !- X,Y,Z ==> Vertex 1 {m}
    23.19829752,7.309104,6.5532,  !- X,Y,Z ==> Vertex 2 {m}
    0,7.309104,6.5532,  !- X,Y,Z ==> Vertex 3 {m}
    0,7.309104,8.9916;  !- X,Y,Z ==> Vertex 4 {m}

  BuildingSurface:Detailed,
    EL4 North Wall (M.SSW17.I42)-mirror,  !- Name
    Wall,                    !- Surface Type
    Interior Wall,           !- Construction Name
    EL4 Core Plnm (M.C20),   !- Zone Name
    ,                        !- Space Name
    Surface,                 !- Outside Boundary Condition
    EL4 North Wall (M.SSW17.I42)-mirror Reversed,  !- Outside Boundary Condition Object
    NoSun,                   !- Sun Exposure
    NoWind,                  !- Wind Exposure
    ,                        !- View Factor to Ground
    ,                        !- Number of Vertices
    0,7.309104,9.4488,  !- X,Y,Z ==> Vertex 1 {m}
    0,7.309104,8.9916,  !- X,Y,Z ==> Vertex 2 {m}
    23.19829752,7.309104,8.9916,  !- X,Y,Z ==> Vertex 3 {m}
    23.19829752,7.309104,9.4488;  !- X,Y,Z ==> Vertex 4 {m}

  BuildingSurface:Detailed,
    EL4 North Wall (M.SSW17.I42)-mirror Reversed,  !- Name
    Wall,                    !- Surface Type
    Interior Wall,           !- Construction Name
    EL4 SSW Perim Plnm (M.SSW17),  !- Zone Name
    ,                        !- Space Name
    Surface,                 !- Outside Boundary Condition
    EL4 North Wall (M.SSW17.I42)-mirror,  !- Outside Boundary Condition Object
    NoSun,                   !- Sun Exposure
    NoWind,                  !- Wind Exposure
    ,                        !- View Factor to Ground
    ,                        !- Number of Vertices
    23.19829752,7.309104,9.4488,  !- X,Y,Z ==> Vertex 1 {m}
    23.19829752,7.309104,8.9916,  !- X,Y,Z ==> Vertex 2 {m}
    0,7.309104,8.9916,  !- X,Y,Z ==> Vertex 3 {m}
    0,7.309104,9.4488;  !- X,Y,Z ==> Vertex 4 {m}

  BuildingSurface:Detailed,
    EL4 North Wall (T.N21.E42),  !- Name
    Wall,                    !- Surface Type
    Exterior Wall,           !- Construction Name
    GuestRm EL4 North Perim Spc (T.N21),  !- Zone Name
    ,                        !- Space Name
    Outdoors,                !- Outside Boundary Condition
    ,                        !- Outside Boundary Condition Object
    SunExposed,              !- Sun Exposure
    WindExposed,             !- Wind Exposure
    ,                        !- View Factor to Ground
    ,                        !- Number of Vertices
    69.598032,16.4592,11.8872,  !- X,Y,Z ==> Vertex 1 {m}
    69.598032,16.4592,9.4488,  !- X,Y,Z ==> Vertex 2 {m}
    0,16.4592,9.4488,  !- X,Y,Z ==> Vertex 3 {m}
    0,16.4592,11.8872;  !- X,Y,Z ==> Vertex 4 {m}

  BuildingSurface:Detailed,
    EL4 North Wall (T.N26.E52),  !- Name
    Wall,                    !- Surface Type
    Exterior Wall,           !- Construction Name
    EL4 North Perim Plnm (T.N26),  !- Zone Name
    ,                        !- Space Name
    Outdoors,                !- Outside Boundary Condition
    ,                        !- Outside Boundary Condition Object
    SunExposed,              !- Sun Exposure
    WindExposed,             !- Wind Exposure
    ,                        !- View Factor to Ground
    ,                        !- Number of Vertices
    69.598032,16.4592,12.3444,  !- X,Y,Z ==> Vertex 1 {m}
    69.598032,16.4592,11.8872,  !- X,Y,Z ==> Vertex 2 {m}
    0,16.4592,11.8872,  !- X,Y,Z ==> Vertex 3 {m}
    0,16.4592,12.3444;  !- X,Y,Z ==> Vertex 4 {m}

  BuildingSurface:Detailed,
    EL4 North Wall (T.NNE23.E45),  !- Name
    Wall,                    !- Surface Type
    Exterior Wall,           !- Construction Name
    GuestRm EL4 NNE Perim Spc (T.NNE23),  !- Zone Name
    ,                        !- Space Name
    Outdoors,                !- Outside Boundary Condition
    ,                        !- Outside Boundary Condition Object
    SunExposed,              !- Sun Exposure
    WindExposed,             !- Wind Exposure
    ,                        !- View Factor to Ground
    ,                        !- Number of Vertices
    92.79636,16.4592,11.8872,  !- X,Y,Z ==> Vertex 1 {m}
    92.79636,16.4592,9.4488,  !- X,Y,Z ==> Vertex 2 {m}
    69.598032,16.4592,9.4488,  !- X,Y,Z ==> Vertex 3 {m}
    69.598032,16.4592,11.8872;  !- X,Y,Z ==> Vertex 4 {m}

  BuildingSurface:Detailed,
    EL4 North Wall (T.NNE28.E57),  !- Name
    Wall,                    !- Surface Type
    Exterior Wall,           !- Construction Name
    EL4 NNE Perim Plnm (T.NNE28),  !- Zone Name
    ,                        !- Space Name
    Outdoors,                !- Outside Boundary Condition
    ,                        !- Outside Boundary Condition Object
    SunExposed,              !- Sun Exposure
    WindExposed,             !- Wind Exposure
    ,                        !- View Factor to Ground
    ,                        !- Number of Vertices
    92.79636,16.4592,12.3444,  !- X,Y,Z ==> Vertex 1 {m}
    92.79636,16.4592,11.8872,  !- X,Y,Z ==> Vertex 2 {m}
    69.598032,16.4592,11.8872,  !- X,Y,Z ==> Vertex 3 {m}
    69.598032,16.4592,12.3444;  !- X,Y,Z ==> Vertex 4 {m}

  BuildingSurface:Detailed,
    EL4 North Wall (T.S24.I57)-mirror,  !- Name
    Wall,                    !- Surface Type
    Interior Wall,           !- Construction Name
    Corridor EL4 Core Spc (T.C25),  !- Zone Name
    ,                        !- Space Name
    Surface,                 !- Outside Boundary Condition
    EL4 North Wall (T.S24.I57)-mirror Reversed,  !- Outside Boundary Condition Object
    NoSun,                   !- Sun Exposure
    NoWind,                  !- Wind Exposure
    ,                        !- View Factor to Ground
    ,                        !- Number of Vertices
    23.19829752,7.309104,11.8872,  !- X,Y,Z ==> Vertex 1 {m}
    23.19829752,7.309104,9.4488,  !- X,Y,Z ==> Vertex 2 {m}
    92.79636,7.309104,9.4488,  !- X,Y,Z ==> Vertex 3 {m}
    92.79636,7.309104,11.8872;  !- X,Y,Z ==> Vertex 4 {m}

  BuildingSurface:Detailed,
    EL4 North Wall (T.S24.I57)-mirror Reversed,  !- Name
    Wall,                    !- Surface Type
    Interior Wall,           !- Construction Name
    GuestRm EL4 South Perim Spc (T.S24),  !- Zone Name
    ,                        !- Space Name
    Surface,                 !- Outside Boundary Condition
    EL4 North Wall (T.S24.I57)-mirror,  !- Outside Boundary Condition Object
    NoSun,                   !- Sun Exposure
    NoWind,                  !- Wind Exposure
    ,                        !- View Factor to Ground
    ,                        !- Number of Vertices
    92.79636,7.309104,11.8872,  !- X,Y,Z ==> Vertex 1 {m}
    92.79636,7.309104,9.4488,  !- X,Y,Z ==> Vertex 2 {m}
    23.19829752,7.309104,9.4488,  !- X,Y,Z ==> Vertex 3 {m}
    23.19829752,7.309104,11.8872;  !- X,Y,Z ==> Vertex 4 {m}

  BuildingSurface:Detailed,
    EL4 North Wall (T.S29.I66)-mirror,  !- Name
    Wall,                    !- Surface Type
    Interior Wall,           !- Construction Name
    EL4 Core Plnm (T.C30),   !- Zone Name
    ,                        !- Space Name
    Surface,                 !- Outside Boundary Condition
    EL4 North Wall (T.S29.I66)-mirror Reversed,  !- Outside Boundary Condition Object
    NoSun,                   !- Sun Exposure
    NoWind,                  !- Wind Exposure
    ,                        !- View Factor to Ground
    ,                        !- Number of Vertices
    23.19829752,7.309104,12.3444,  !- X,Y,Z ==> Vertex 1 {m}
    23.19829752,7.309104,11.8872,  !- X,Y,Z ==> Vertex 2 {m}
    92.79636,7.309104,11.8872,  !- X,Y,Z ==> Vertex 3 {m}
    92.79636,7.309104,12.3444;  !- X,Y,Z ==> Vertex 4 {m}

  BuildingSurface:Detailed,
    EL4 North Wall (T.S29.I66)-mirror Reversed,  !- Name
    Wall,                    !- Surface Type
    Interior Wall,           !- Construction Name
    EL4 South Perim Plnm (T.S29),  !- Zone Name
    ,                        !- Space Name
    Surface,                 !- Outside Boundary Condition
    EL4 North Wall (T.S29.I66)-mirror,  !- Outside Boundary Condition Object
    NoSun,                   !- Sun Exposure
    NoWind,                  !- Wind Exposure
    ,                        !- View Factor to Ground
    ,                        !- Number of Vertices
    92.79636,7.309104,12.3444,  !- X,Y,Z ==> Vertex 1 {m}
    92.79636,7.309104,11.8872,  !- X,Y,Z ==> Vertex 2 {m}
    23.19829752,7.309104,11.8872,  !- X,Y,Z ==> Vertex 3 {m}
    23.19829752,7.309104,12.3444;  !- X,Y,Z ==> Vertex 4 {m}

  BuildingSurface:Detailed,
    EL4 North Wall (T.SSW22.I51)-mirror,  !- Name
    Wall,                    !- Surface Type
    Interior Wall,           !- Construction Name
    Corridor EL4 Core Spc (T.C25),  !- Zone Name
    ,                        !- Space Name
    Surface,                 !- Outside Boundary Condition
    EL4 North Wall (T.SSW22.I51)-mirror Reversed,  !- Outside Boundary Condition Object
    NoSun,                   !- Sun Exposure
    NoWind,                  !- Wind Exposure
    ,                        !- View Factor to Ground
    ,                        !- Number of Vertices
    0,7.309104,11.8872,  !- X,Y,Z ==> Vertex 1 {m}
    0,7.309104,9.4488,  !- X,Y,Z ==> Vertex 2 {m}
    23.19829752,7.309104,9.4488,  !- X,Y,Z ==> Vertex 3 {m}
    23.19829752,7.309104,11.8872;  !- X,Y,Z ==> Vertex 4 {m}

  BuildingSurface:Detailed,
    EL4 North Wall (T.SSW22.I51)-mirror Reversed,  !- Name
    Wall,                    !- Surface Type
    Interior Wall,           !- Construction Name
    GuestRm EL4 SSW Perim Spc (T.SSW22),  !- Zone Name
    ,                        !- Space Name
    Surface,                 !- Outside Boundary Condition
    EL4 North Wall (T.SSW22.I51)-mirror,  !- Outside Boundary Condition Object
    NoSun,                   !- Sun Exposure
    NoWind,                  !- Wind Exposure
    ,                        !- View Factor to Ground
    ,                        !- Number of Vertices
    23.19829752,7.309104,11.8872,  !- X,Y,Z ==> Vertex 1 {m}
    23.19829752,7.309104,9.4488,  !- X,Y,Z ==> Vertex 2 {m}
    0,7.309104,9.4488,  !- X,Y,Z ==> Vertex 3 {m}
    0,7.309104,11.8872;  !- X,Y,Z ==> Vertex 4 {m}

  BuildingSurface:Detailed,
    EL4 North Wall (T.SSW27.I64)-mirror,  !- Name
    Wall,                    !- Surface Type
    Interior Wall,           !- Construction Name
    EL4 Core Plnm (T.C30),   !- Zone Name
    ,                        !- Space Name
    Surface,                 !- Outside Boundary Condition
    EL4 North Wall (T.SSW27.I64)-mirror Reversed,  !- Outside Boundary Condition Object
    NoSun,                   !- Sun Exposure
    NoWind,                  !- Wind Exposure
    ,                        !- View Factor to Ground
    ,                        !- Number of Vertices
    0,7.309104,12.3444,  !- X,Y,Z ==> Vertex 1 {m}
    0,7.309104,11.8872,  !- X,Y,Z ==> Vertex 2 {m}
    23.19829752,7.309104,11.8872,  !- X,Y,Z ==> Vertex 3 {m}
    23.19829752,7.309104,12.3444;  !- X,Y,Z ==> Vertex 4 {m}

  BuildingSurface:Detailed,
    EL4 North Wall (T.SSW27.I64)-mirror Reversed,  !- Name
    Wall,                    !- Surface Type
    Interior Wall,           !- Construction Name
    EL4 SSW Perim Plnm (T.SSW27),  !- Zone Name
    ,                        !- Space Name
    Surface,                 !- Outside Boundary Condition
    EL4 North Wall (T.SSW27.I64)-mirror,  !- Outside Boundary Condition Object
    NoSun,                   !- Sun Exposure
    NoWind,                  !- Wind Exposure
    ,                        !- View Factor to Ground
    ,                        !- Number of Vertices
    23.19829752,7.309104,12.3444,  !- X,Y,Z ==> Vertex 1 {m}
    23.19829752,7.309104,11.8872,  !- X,Y,Z ==> Vertex 2 {m}
    0,7.309104,11.8872,  !- X,Y,Z ==> Vertex 3 {m}
    0,7.309104,12.3444;  !- X,Y,Z ==> Vertex 4 {m}

  BuildingSurface:Detailed,
    EL4 Roof (T.C30.E65),    !- Name
    Roof,                    !- Surface Type
    Exterior Roof,           !- Construction Name
    EL4 Core Plnm (T.C30),   !- Zone Name
    ,                        !- Space Name
    Outdoors,                !- Outside Boundary Condition
    ,                        !- Outside Boundary Condition Object
    SunExposed,              !- Sun Exposure
    WindExposed,             !- Wind Exposure
    ,                        !- View Factor to Ground
    ,                        !- Number of Vertices
    92.79636,7.309104,12.3444,  !- X,Y,Z ==> Vertex 1 {m}
    92.79636,9.150096,12.3444,  !- X,Y,Z ==> Vertex 2 {m}
    0,9.150096,12.3444,  !- X,Y,Z ==> Vertex 3 {m}
    0,7.309104,12.3444;  !- X,Y,Z ==> Vertex 4 {m}

  BuildingSurface:Detailed,
    EL4 Roof (T.N26.E53),    !- Name
    Roof,                    !- Surface Type
    Exterior Roof,           !- Construction Name
    EL4 North Perim Plnm (T.N26),  !- Zone Name
    ,                        !- Space Name
    Outdoors,                !- Outside Boundary Condition
    ,                        !- Outside Boundary Condition Object
    SunExposed,              !- Sun Exposure
    WindExposed,             !- Wind Exposure
    ,                        !- View Factor to Ground
    ,                        !- Number of Vertices
    69.598032,9.150096,12.3444,  !- X,Y,Z ==> Vertex 1 {m}
    69.598032,16.4592,12.3444,  !- X,Y,Z ==> Vertex 2 {m}
    0,16.4592,12.3444,  !- X,Y,Z ==> Vertex 3 {m}
    0,9.150096,12.3444;  !- X,Y,Z ==> Vertex 4 {m}

  BuildingSurface:Detailed,
    EL4 Roof (T.NNE28.E59),  !- Name
    Roof,                    !- Surface Type
    Exterior Roof,           !- Construction Name
    EL4 NNE Perim Plnm (T.NNE28),  !- Zone Name
    ,                        !- Space Name
    Outdoors,                !- Outside Boundary Condition
    ,                        !- Outside Boundary Condition Object
    SunExposed,              !- Sun Exposure
    WindExposed,             !- Wind Exposure
    ,                        !- View Factor to Ground
    ,                        !- Number of Vertices
    92.79636,9.150096,12.3444,  !- X,Y,Z ==> Vertex 1 {m}
    92.79636,16.4592,12.3444,  !- X,Y,Z ==> Vertex 2 {m}
    69.598032,16.4592,12.3444,  !- X,Y,Z ==> Vertex 3 {m}
    69.598032,9.150096,12.3444;  !- X,Y,Z ==> Vertex 4 {m}

  BuildingSurface:Detailed,
    EL4 Roof (T.S29.E62),    !- Name
    Roof,                    !- Surface Type
    Exterior Roof,           !- Construction Name
    EL4 South Perim Plnm (T.S29),  !- Zone Name
    ,                        !- Space Name
    Outdoors,                !- Outside Boundary Condition
    ,                        !- Outside Boundary Condition Object
    SunExposed,              !- Sun Exposure
    WindExposed,             !- Wind Exposure
    ,                        !- View Factor to Ground
    ,                        !- Number of Vertices
    92.79636,0,12.3444,  !- X,Y,Z ==> Vertex 1 {m}
    92.79636,7.309104,12.3444,  !- X,Y,Z ==> Vertex 2 {m}
    23.198328,7.309104,12.3444,  !- X,Y,Z ==> Vertex 3 {m}
    23.198328,0,12.3444;  !- X,Y,Z ==> Vertex 4 {m}

  BuildingSurface:Detailed,
    EL4 Roof (T.SSW27.E56),  !- Name
    Roof,                    !- Surface Type
    Exterior Roof,           !- Construction Name
    EL4 SSW Perim Plnm (T.SSW27),  !- Zone Name
    ,                        !- Space Name
    Outdoors,                !- Outside Boundary Condition
    ,                        !- Outside Boundary Condition Object
    SunExposed,              !- Sun Exposure
    WindExposed,             !- Wind Exposure
    ,                        !- View Factor to Ground
    ,                        !- Number of Vertices
    23.19829752,-3.45682824e-07,12.3444,  !- X,Y,Z ==> Vertex 1 {m}
    23.19829752,7.309104,12.3444,  !- X,Y,Z ==> Vertex 2 {m}
    0,7.309104,12.3444,  !- X,Y,Z ==> Vertex 3 {m}
    0,-3.45682824e-07,12.3444;  !- X,Y,Z ==> Vertex 4 {m}

  BuildingSurface:Detailed,
    EL4 South Perim Spc (G.S4) - Floor_a,  !- Name
    Floor,                   !- Surface Type
    Interior Floor,          !- Construction Name
    GuestRm EL4 South Perim Spc (G.S4),  !- Zone Name
    ,                        !- Space Name
    Surface,                 !- Outside Boundary Condition
    EL4 South Perim Spc (G.S4) - Floor_a Reversed,  !- Outside Boundary Condition Object
    NoSun,                   !- Sun Exposure
    NoWind,                  !- Wind Exposure
    ,                        !- View Factor to Ground
    ,                        !- Number of Vertices
    92.79636,7.309104,3.6576,  !- X,Y,Z ==> Vertex 1 {m}
    92.79636,-3.45682824e-07,3.6576,  !- X,Y,Z ==> Vertex 2 {m}
    69.598032,-3.45682824e-07,3.6576,  !- X,Y,Z ==> Vertex 3 {m}
    69.598032,7.309104,3.6576;  !- X,Y,Z ==> Vertex 4 {m}

  BuildingSurface:Detailed,
    EL4 South Perim Spc (G.S4) - Floor_a Reversed,  !- Name
    Ceiling,                 !- Surface Type
    Radiant Interior Ceiling,!- Construction Name
    EL1 East Perim Plnm (G.E6),  !- Zone Name
    ,                        !- Space Name
    Surface,                 !- Outside Boundary Condition
    EL4 South Perim Spc (G.S4) - Floor_a,  !- Outside Boundary Condition Object
    NoSun,                   !- Sun Exposure
    NoWind,                  !- Wind Exposure
    ,                        !- View Factor to Ground
    ,                        !- Number of Vertices
    92.79636,-3.45682824e-07,3.6576,  !- X,Y,Z ==> Vertex 1 {m}
    92.79636,7.309104,3.6576,  !- X,Y,Z ==> Vertex 2 {m}
    69.598032,7.309104,3.6576,  !- X,Y,Z ==> Vertex 3 {m}
    69.598032,-3.45682824e-07,3.6576;  !- X,Y,Z ==> Vertex 4 {m}

  BuildingSurface:Detailed,
    EL4 South Wall (G.N1.I2)-mirror,  !- Name
    Wall,                    !- Surface Type
    Interior Wall,           !- Construction Name
    Corridor EL4 Core Spc (G.C5),  !- Zone Name
    ,                        !- Space Name
    Surface,                 !- Outside Boundary Condition
    EL4 South Wall (G.N1.I2)-mirror Reversed,  !- Outside Boundary Condition Object
    NoSun,                   !- Sun Exposure
    NoWind,                  !- Wind Exposure
    ,                        !- View Factor to Ground
    ,                        !- Number of Vertices
    69.598032,9.150096,6.096,  !- X,Y,Z ==> Vertex 1 {m}
    69.598032,9.150096,3.6576,  !- X,Y,Z ==> Vertex 2 {m}
    0,9.150096,3.6576,  !- X,Y,Z ==> Vertex 3 {m}
    0,9.150096,6.096;  !- X,Y,Z ==> Vertex 4 {m}

  BuildingSurface:Detailed,
    EL4 South Wall (G.N1.I2)-mirror Reversed,  !- Name
    Wall,                    !- Surface Type
    Interior Wall,           !- Construction Name
    GuestRm EL4 North Perim Spc (G.N1),  !- Zone Name
    ,                        !- Space Name
    Surface,                 !- Outside Boundary Condition
    EL4 South Wall (G.N1.I2)-mirror,  !- Outside Boundary Condition Object
    NoSun,                   !- Sun Exposure
    NoWind,                  !- Wind Exposure
    ,                        !- View Factor to Ground
    ,                        !- Number of Vertices
    0,9.150096,6.096,  !- X,Y,Z ==> Vertex 1 {m}
    0,9.150096,3.6576,  !- X,Y,Z ==> Vertex 2 {m}
    69.598032,9.150096,3.6576,  !- X,Y,Z ==> Vertex 3 {m}
    69.598032,9.150096,6.096;  !- X,Y,Z ==> Vertex 4 {m}

  BuildingSurface:Detailed,
    EL4 South Wall (G.N6.I17)-mirror,  !- Name
    Wall,                    !- Surface Type
    Interior Wall,           !- Construction Name
    EL4 Core Plnm (G.C10),   !- Zone Name
    ,                        !- Space Name
    Surface,                 !- Outside Boundary Condition
    EL4 South Wall (G.N6.I17)-mirror Reversed,  !- Outside Boundary Condition Object
    NoSun,                   !- Sun Exposure
    NoWind,                  !- Wind Exposure
    ,                        !- View Factor to Ground
    ,                        !- Number of Vertices
    69.598032,9.150096,6.5532,  !- X,Y,Z ==> Vertex 1 {m}
    69.598032,9.150096,6.096,  !- X,Y,Z ==> Vertex 2 {m}
    0,9.150096,6.096,  !- X,Y,Z ==> Vertex 3 {m}
    0,9.150096,6.5532;  !- X,Y,Z ==> Vertex 4 {m}

  BuildingSurface:Detailed,
    EL4 South Wall (G.N6.I17)-mirror Reversed,  !- Name
    Wall,                    !- Surface Type
    Interior Wall,           !- Construction Name
    EL4 North Perim Plnm (G.N6),  !- Zone Name
    ,                        !- Space Name
    Surface,                 !- Outside Boundary Condition
    EL4 South Wall (G.N6.I17)-mirror,  !- Outside Boundary Condition Object
    NoSun,                   !- Sun Exposure
    NoWind,                  !- Wind Exposure
    ,                        !- View Factor to Ground
    ,                        !- Number of Vertices
    0,9.150096,6.5532,  !- X,Y,Z ==> Vertex 1 {m}
    0,9.150096,6.096,  !- X,Y,Z ==> Vertex 2 {m}
    69.598032,9.150096,6.096,  !- X,Y,Z ==> Vertex 3 {m}
    69.598032,9.150096,6.5532;  !- X,Y,Z ==> Vertex 4 {m}

  BuildingSurface:Detailed,
    EL4 South Wall (G.NNE3.I10)-mirror,  !- Name
    Wall,                    !- Surface Type
    Interior Wall,           !- Construction Name
    Corridor EL4 Core Spc (G.C5),  !- Zone Name
    ,                        !- Space Name
    Surface,                 !- Outside Boundary Condition
    EL4 South Wall (G.NNE3.I10)-mirror Reversed,  !- Outside Boundary Condition Object
    NoSun,                   !- Sun Exposure
    NoWind,                  !- Wind Exposure
    ,                        !- View Factor to Ground
    ,                        !- Number of Vertices
    92.79636,9.150096,6.096,  !- X,Y,Z ==> Vertex 1 {m}
    92.79636,9.150096,3.6576,  !- X,Y,Z ==> Vertex 2 {m}
    69.598032,9.150096,3.6576,  !- X,Y,Z ==> Vertex 3 {m}
    69.598032,9.150096,6.096;  !- X,Y,Z ==> Vertex 4 {m}

  BuildingSurface:Detailed,
    EL4 South Wall (G.NNE3.I10)-mirror Reversed,  !- Name
    Wall,                    !- Surface Type
    Interior Wall,           !- Construction Name
    GuestRm EL4 NNE Perim Spc (G.NNE3),  !- Zone Name
    ,                        !- Space Name
    Surface,                 !- Outside Boundary Condition
    EL4 South Wall (G.NNE3.I10)-mirror,  !- Outside Boundary Condition Object
    NoSun,                   !- Sun Exposure
    NoWind,                  !- Wind Exposure
    ,                        !- View Factor to Ground
    ,                        !- Number of Vertices
    69.598032,9.150096,6.096,  !- X,Y,Z ==> Vertex 1 {m}
    69.598032,9.150096,3.6576,  !- X,Y,Z ==> Vertex 2 {m}
    92.79636,9.150096,3.6576,  !- X,Y,Z ==> Vertex 3 {m}
    92.79636,9.150096,6.096;  !- X,Y,Z ==> Vertex 4 {m}

  BuildingSurface:Detailed,
    EL4 South Wall (G.NNE8.I21)-mirror,  !- Name
    Wall,                    !- Surface Type
    Interior Wall,           !- Construction Name
    EL4 Core Plnm (G.C10),   !- Zone Name
    ,                        !- Space Name
    Surface,                 !- Outside Boundary Condition
    EL4 South Wall (G.NNE8.I21)-mirror Reversed,  !- Outside Boundary Condition Object
    NoSun,                   !- Sun Exposure
    NoWind,                  !- Wind Exposure
    ,                        !- View Factor to Ground
    ,                        !- Number of Vertices
    92.79636,9.150096,6.5532,  !- X,Y,Z ==> Vertex 1 {m}
    92.79636,9.150096,6.096,  !- X,Y,Z ==> Vertex 2 {m}
    69.598032,9.150096,6.096,  !- X,Y,Z ==> Vertex 3 {m}
    69.598032,9.150096,6.5532;  !- X,Y,Z ==> Vertex 4 {m}

  BuildingSurface:Detailed,
    EL4 South Wall (G.NNE8.I21)-mirror Reversed,  !- Name
    Wall,                    !- Surface Type
    Interior Wall,           !- Construction Name
    EL4 NNE Perim Plnm (G.NNE8),  !- Zone Name
    ,                        !- Space Name
    Surface,                 !- Outside Boundary Condition
    EL4 South Wall (G.NNE8.I21)-mirror,  !- Outside Boundary Condition Object
    NoSun,                   !- Sun Exposure
    NoWind,                  !- Wind Exposure
    ,                        !- View Factor to Ground
    ,                        !- Number of Vertices
    69.598032,9.150096,6.5532,  !- X,Y,Z ==> Vertex 1 {m}
    69.598032,9.150096,6.096,  !- X,Y,Z ==> Vertex 2 {m}
    92.79636,9.150096,6.096,  !- X,Y,Z ==> Vertex 3 {m}
    92.79636,9.150096,6.5532;  !- X,Y,Z ==> Vertex 4 {m}

  BuildingSurface:Detailed,
    EL4 South Wall (G.S4.E8),!- Name
    Wall,                    !- Surface Type
    Exterior Wall,           !- Construction Name
    GuestRm EL4 South Perim Spc (G.S4),  !- Zone Name
    ,                        !- Space Name
    Outdoors,                !- Outside Boundary Condition
    ,                        !- Outside Boundary Condition Object
    SunExposed,              !- Sun Exposure
    WindExposed,             !- Wind Exposure
    ,                        !- View Factor to Ground
    ,                        !- Number of Vertices
    23.198328,-3.45682824e-07,6.096,  !- X,Y,Z ==> Vertex 1 {m}
    23.198328,-3.45682824e-07,3.6576,  !- X,Y,Z ==> Vertex 2 {m}
    92.79636,-3.45682824e-07,3.6576,  !- X,Y,Z ==> Vertex 3 {m}
    92.79636,-3.45682824e-07,6.096;  !- X,Y,Z ==> Vertex 4 {m}

  BuildingSurface:Detailed,
    EL4 South Wall (G.S9.E18),  !- Name
    Wall,                    !- Surface Type
    Exterior Wall,           !- Construction Name
    EL4 South Perim Plnm (G.S9),  !- Zone Name
    ,                        !- Space Name
    Outdoors,                !- Outside Boundary Condition
    ,                        !- Outside Boundary Condition Object
    SunExposed,              !- Sun Exposure
    WindExposed,             !- Wind Exposure
    ,                        !- View Factor to Ground
    ,                        !- Number of Vertices
    23.198328,-3.45682824e-07,6.5532,  !- X,Y,Z ==> Vertex 1 {m}
    23.198328,-3.45682824e-07,6.096,  !- X,Y,Z ==> Vertex 2 {m}
    92.79636,-3.45682824e-07,6.096,  !- X,Y,Z ==> Vertex 3 {m}
    92.79636,-3.45682824e-07,6.5532;  !- X,Y,Z ==> Vertex 4 {m}

  BuildingSurface:Detailed,
    EL4 South Wall (G.SSW2.E3),  !- Name
    Wall,                    !- Surface Type
    Exterior Wall,           !- Construction Name
    GuestRm EL4 SSW Perim Spc (G.SSW2),  !- Zone Name
    ,                        !- Space Name
    Outdoors,                !- Outside Boundary Condition
    ,                        !- Outside Boundary Condition Object
    SunExposed,              !- Sun Exposure
    WindExposed,             !- Wind Exposure
    ,                        !- View Factor to Ground
    ,                        !- Number of Vertices
    0,-3.45682824e-07,6.096,  !- X,Y,Z ==> Vertex 1 {m}
    0,-3.45682824e-07,3.6576,  !- X,Y,Z ==> Vertex 2 {m}
    23.19829752,-3.45682824e-07,3.6576,  !- X,Y,Z ==> Vertex 3 {m}
    23.19829752,-3.45682824e-07,6.096;  !- X,Y,Z ==> Vertex 4 {m}

  BuildingSurface:Detailed,
    EL4 South Wall (G.SSW7.E13),  !- Name
    Wall,                    !- Surface Type
    Exterior Wall,           !- Construction Name
    EL4 SSW Perim Plnm (G.SSW7),  !- Zone Name
    ,                        !- Space Name
    Outdoors,                !- Outside Boundary Condition
    ,                        !- Outside Boundary Condition Object
    SunExposed,              !- Sun Exposure
    WindExposed,             !- Wind Exposure
    ,                        !- View Factor to Ground
    ,                        !- Number of Vertices
    0,-3.45682824e-07,6.5532,  !- X,Y,Z ==> Vertex 1 {m}
    0,-3.45682824e-07,6.096,  !- X,Y,Z ==> Vertex 2 {m}
    23.19829752,-3.45682824e-07,6.096,  !- X,Y,Z ==> Vertex 3 {m}
    23.19829752,-3.45682824e-07,6.5532;  !- X,Y,Z ==> Vertex 4 {m}

  BuildingSurface:Detailed,
    EL4 South Wall (M.N11.I24)-mirror,  !- Name
    Wall,                    !- Surface Type
    Interior Wall,           !- Construction Name
    Corridor EL4 Core Spc (M.C15),  !- Zone Name
    ,                        !- Space Name
    Surface,                 !- Outside Boundary Condition
    EL4 South Wall (M.N11.I24)-mirror Reversed,  !- Outside Boundary Condition Object
    NoSun,                   !- Sun Exposure
    NoWind,                  !- Wind Exposure
    ,                        !- View Factor to Ground
    ,                        !- Number of Vertices
    69.598032,9.150096,8.9916,  !- X,Y,Z ==> Vertex 1 {m}
    69.598032,9.150096,6.5532,  !- X,Y,Z ==> Vertex 2 {m}
    0,9.150096,6.5532,  !- X,Y,Z ==> Vertex 3 {m}
    0,9.150096,8.9916;  !- X,Y,Z ==> Vertex 4 {m}

  BuildingSurface:Detailed,
    EL4 South Wall (M.N11.I24)-mirror Reversed,  !- Name
    Wall,                    !- Surface Type
    Interior Wall,           !- Construction Name
    GuestRm EL4 North Perim Spc (M.N11),  !- Zone Name
    ,                        !- Space Name
    Surface,                 !- Outside Boundary Condition
    EL4 South Wall (M.N11.I24)-mirror,  !- Outside Boundary Condition Object
    NoSun,                   !- Sun Exposure
    NoWind,                  !- Wind Exposure
    ,                        !- View Factor to Ground
    ,                        !- Number of Vertices
    0,9.150096,8.9916,  !- X,Y,Z ==> Vertex 1 {m}
    0,9.150096,6.5532,  !- X,Y,Z ==> Vertex 2 {m}
    69.598032,9.150096,6.5532,  !- X,Y,Z ==> Vertex 3 {m}
    69.598032,9.150096,8.9916;  !- X,Y,Z ==> Vertex 4 {m}

  BuildingSurface:Detailed,
    EL4 South Wall (M.N16.I39)-mirror,  !- Name
    Wall,                    !- Surface Type
    Interior Wall,           !- Construction Name
    EL4 Core Plnm (M.C20),   !- Zone Name
    ,                        !- Space Name
    Surface,                 !- Outside Boundary Condition
    EL4 South Wall (M.N16.I39)-mirror Reversed,  !- Outside Boundary Condition Object
    NoSun,                   !- Sun Exposure
    NoWind,                  !- Wind Exposure
    ,                        !- View Factor to Ground
    ,                        !- Number of Vertices
    69.598032,9.150096,9.4488,  !- X,Y,Z ==> Vertex 1 {m}
    69.598032,9.150096,8.9916,  !- X,Y,Z ==> Vertex 2 {m}
    0,9.150096,8.9916,  !- X,Y,Z ==> Vertex 3 {m}
    0,9.150096,9.4488;  !- X,Y,Z ==> Vertex 4 {m}

  BuildingSurface:Detailed,
    EL4 South Wall (M.N16.I39)-mirror Reversed,  !- Name
    Wall,                    !- Surface Type
    Interior Wall,           !- Construction Name
    EL4 North Perim Plnm (M.N16),  !- Zone Name
    ,                        !- Space Name
    Surface,                 !- Outside Boundary Condition
    EL4 South Wall (M.N16.I39)-mirror,  !- Outside Boundary Condition Object
    NoSun,                   !- Sun Exposure
    NoWind,                  !- Wind Exposure
    ,                        !- View Factor to Ground
    ,                        !- Number of Vertices
    0,9.150096,9.4488,  !- X,Y,Z ==> Vertex 1 {m}
    0,9.150096,8.9916,  !- X,Y,Z ==> Vertex 2 {m}
    69.598032,9.150096,8.9916,  !- X,Y,Z ==> Vertex 3 {m}
    69.598032,9.150096,9.4488;  !- X,Y,Z ==> Vertex 4 {m}

  BuildingSurface:Detailed,
    EL4 South Wall (M.NNE13.I32)-mirror,  !- Name
    Wall,                    !- Surface Type
    Interior Wall,           !- Construction Name
    Corridor EL4 Core Spc (M.C15),  !- Zone Name
    ,                        !- Space Name
    Surface,                 !- Outside Boundary Condition
    EL4 South Wall (M.NNE13.I32)-mirror Reversed,  !- Outside Boundary Condition Object
    NoSun,                   !- Sun Exposure
    NoWind,                  !- Wind Exposure
    ,                        !- View Factor to Ground
    ,                        !- Number of Vertices
    92.79636,9.150096,8.9916,  !- X,Y,Z ==> Vertex 1 {m}
    92.79636,9.150096,6.5532,  !- X,Y,Z ==> Vertex 2 {m}
    69.598032,9.150096,6.5532,  !- X,Y,Z ==> Vertex 3 {m}
    69.598032,9.150096,8.9916;  !- X,Y,Z ==> Vertex 4 {m}

  BuildingSurface:Detailed,
    EL4 South Wall (M.NNE13.I32)-mirror Reversed,  !- Name
    Wall,                    !- Surface Type
    Interior Wall,           !- Construction Name
    GuestRm EL4 NNE Perim Spc (M.NNE13),  !- Zone Name
    ,                        !- Space Name
    Surface,                 !- Outside Boundary Condition
    EL4 South Wall (M.NNE13.I32)-mirror,  !- Outside Boundary Condition Object
    NoSun,                   !- Sun Exposure
    NoWind,                  !- Wind Exposure
    ,                        !- View Factor to Ground
    ,                        !- Number of Vertices
    69.598032,9.150096,8.9916,  !- X,Y,Z ==> Vertex 1 {m}
    69.598032,9.150096,6.5532,  !- X,Y,Z ==> Vertex 2 {m}
    92.79636,9.150096,6.5532,  !- X,Y,Z ==> Vertex 3 {m}
    92.79636,9.150096,8.9916;  !- X,Y,Z ==> Vertex 4 {m}

  BuildingSurface:Detailed,
    EL4 South Wall (M.NNE18.I43)-mirror,  !- Name
    Wall,                    !- Surface Type
    Interior Wall,           !- Construction Name
    EL4 Core Plnm (M.C20),   !- Zone Name
    ,                        !- Space Name
    Surface,                 !- Outside Boundary Condition
    EL4 South Wall (M.NNE18.I43)-mirror Reversed,  !- Outside Boundary Condition Object
    NoSun,                   !- Sun Exposure
    NoWind,                  !- Wind Exposure
    ,                        !- View Factor to Ground
    ,                        !- Number of Vertices
    92.79636,9.150096,9.4488,  !- X,Y,Z ==> Vertex 1 {m}
    92.79636,9.150096,8.9916,  !- X,Y,Z ==> Vertex 2 {m}
    69.598032,9.150096,8.9916,  !- X,Y,Z ==> Vertex 3 {m}
    69.598032,9.150096,9.4488;  !- X,Y,Z ==> Vertex 4 {m}

  BuildingSurface:Detailed,
    EL4 South Wall (M.NNE18.I43)-mirror Reversed,  !- Name
    Wall,                    !- Surface Type
    Interior Wall,           !- Construction Name
    EL4 NNE Perim Plnm (M.NNE18),  !- Zone Name
    ,                        !- Space Name
    Surface,                 !- Outside Boundary Condition
    EL4 South Wall (M.NNE18.I43)-mirror,  !- Outside Boundary Condition Object
    NoSun,                   !- Sun Exposure
    NoWind,                  !- Wind Exposure
    ,                        !- View Factor to Ground
    ,                        !- Number of Vertices
    69.598032,9.150096,9.4488,  !- X,Y,Z ==> Vertex 1 {m}
    69.598032,9.150096,8.9916,  !- X,Y,Z ==> Vertex 2 {m}
    92.79636,9.150096,8.9916,  !- X,Y,Z ==> Vertex 3 {m}
    92.79636,9.150096,9.4488;  !- X,Y,Z ==> Vertex 4 {m}

  BuildingSurface:Detailed,
    EL4 South Wall (M.S14.E28),  !- Name
    Wall,                    !- Surface Type
    Exterior Wall,           !- Construction Name
    GuestRm EL4 South Perim Spc (M.S14),  !- Zone Name
    ,                        !- Space Name
    Outdoors,                !- Outside Boundary Condition
    ,                        !- Outside Boundary Condition Object
    SunExposed,              !- Sun Exposure
    WindExposed,             !- Wind Exposure
    ,                        !- View Factor to Ground
    ,                        !- Number of Vertices
    23.198328,-3.45682824e-07,8.9916,  !- X,Y,Z ==> Vertex 1 {m}
    23.198328,-3.45682824e-07,6.5532,  !- X,Y,Z ==> Vertex 2 {m}
    92.79636,-3.45682824e-07,6.5532,  !- X,Y,Z ==> Vertex 3 {m}
    92.79636,-3.45682824e-07,8.9916;  !- X,Y,Z ==> Vertex 4 {m}

  BuildingSurface:Detailed,
    EL4 South Wall (M.S19.E38),  !- Name
    Wall,                    !- Surface Type
    Exterior Wall,           !- Construction Name
    EL4 South Perim Plnm (M.S19),  !- Zone Name
    ,                        !- Space Name
    Outdoors,                !- Outside Boundary Condition
    ,                        !- Outside Boundary Condition Object
    SunExposed,              !- Sun Exposure
    WindExposed,             !- Wind Exposure
    ,                        !- View Factor to Ground
    ,                        !- Number of Vertices
    23.198328,0,9.4488,  !- X,Y,Z ==> Vertex 1 {m}
    23.198328,0,8.9916,  !- X,Y,Z ==> Vertex 2 {m}
    92.79636,0,8.9916,  !- X,Y,Z ==> Vertex 3 {m}
    92.79636,0,9.4488;  !- X,Y,Z ==> Vertex 4 {m}

  BuildingSurface:Detailed,
    EL4 South Wall (M.SSW12.E23),  !- Name
    Wall,                    !- Surface Type
    Exterior Wall,           !- Construction Name
    GuestRm EL4 SSW Perim Spc (M.SSW12),  !- Zone Name
    ,                        !- Space Name
    Outdoors,                !- Outside Boundary Condition
    ,                        !- Outside Boundary Condition Object
    SunExposed,              !- Sun Exposure
    WindExposed,             !- Wind Exposure
    ,                        !- View Factor to Ground
    ,                        !- Number of Vertices
    0,-3.45682824e-07,8.9916,  !- X,Y,Z ==> Vertex 1 {m}
    0,-3.45682824e-07,6.5532,  !- X,Y,Z ==> Vertex 2 {m}
    23.19829752,-3.45682824e-07,6.5532,  !- X,Y,Z ==> Vertex 3 {m}
    23.19829752,-3.45682824e-07,8.9916;  !- X,Y,Z ==> Vertex 4 {m}

  BuildingSurface:Detailed,
    EL4 South Wall (M.SSW17.E33),  !- Name
    Wall,                    !- Surface Type
    Exterior Wall,           !- Construction Name
    EL4 SSW Perim Plnm (M.SSW17),  !- Zone Name
    ,                        !- Space Name
    Outdoors,                !- Outside Boundary Condition
    ,                        !- Outside Boundary Condition Object
    SunExposed,              !- Sun Exposure
    WindExposed,             !- Wind Exposure
    ,                        !- View Factor to Ground
    ,                        !- Number of Vertices
    0,-3.45682824e-07,9.4488,  !- X,Y,Z ==> Vertex 1 {m}
    0,-3.45682824e-07,8.9916,  !- X,Y,Z ==> Vertex 2 {m}
    23.19829752,-3.45682824e-07,8.9916,  !- X,Y,Z ==> Vertex 3 {m}
    23.19829752,-3.45682824e-07,9.4488;  !- X,Y,Z ==> Vertex 4 {m}

  BuildingSurface:Detailed,
    EL4 South Wall (T.N21.I46)-mirror,  !- Name
    Wall,                    !- Surface Type
    Interior Wall,           !- Construction Name
    Corridor EL4 Core Spc (T.C25),  !- Zone Name
    ,                        !- Space Name
    Surface,                 !- Outside Boundary Condition
    EL4 South Wall (T.N21.I46)-mirror Reversed,  !- Outside Boundary Condition Object
    NoSun,                   !- Sun Exposure
    NoWind,                  !- Wind Exposure
    ,                        !- View Factor to Ground
    ,                        !- Number of Vertices
    69.598032,9.150096,11.8872,  !- X,Y,Z ==> Vertex 1 {m}
    69.598032,9.150096,9.4488,  !- X,Y,Z ==> Vertex 2 {m}
    0,9.150096,9.4488,  !- X,Y,Z ==> Vertex 3 {m}
    0,9.150096,11.8872;  !- X,Y,Z ==> Vertex 4 {m}

  BuildingSurface:Detailed,
    EL4 South Wall (T.N21.I46)-mirror Reversed,  !- Name
    Wall,                    !- Surface Type
    Interior Wall,           !- Construction Name
    GuestRm EL4 North Perim Spc (T.N21),  !- Zone Name
    ,                        !- Space Name
    Surface,                 !- Outside Boundary Condition
    EL4 South Wall (T.N21.I46)-mirror,  !- Outside Boundary Condition Object
    NoSun,                   !- Sun Exposure
    NoWind,                  !- Wind Exposure
    ,                        !- View Factor to Ground
    ,                        !- Number of Vertices
    0,9.150096,11.8872,  !- X,Y,Z ==> Vertex 1 {m}
    0,9.150096,9.4488,  !- X,Y,Z ==> Vertex 2 {m}
    69.598032,9.150096,9.4488,  !- X,Y,Z ==> Vertex 3 {m}
    69.598032,9.150096,11.8872;  !- X,Y,Z ==> Vertex 4 {m}

  BuildingSurface:Detailed,
    EL4 South Wall (T.N26.I61)-mirror,  !- Name
    Wall,                    !- Surface Type
    Interior Wall,           !- Construction Name
    EL4 Core Plnm (T.C30),   !- Zone Name
    ,                        !- Space Name
    Surface,                 !- Outside Boundary Condition
    EL4 South Wall (T.N26.I61)-mirror Reversed,  !- Outside Boundary Condition Object
    NoSun,                   !- Sun Exposure
    NoWind,                  !- Wind Exposure
    ,                        !- View Factor to Ground
    ,                        !- Number of Vertices
    69.598032,9.150096,12.3444,  !- X,Y,Z ==> Vertex 1 {m}
    69.598032,9.150096,11.8872,  !- X,Y,Z ==> Vertex 2 {m}
    0,9.150096,11.8872,  !- X,Y,Z ==> Vertex 3 {m}
    0,9.150096,12.3444;  !- X,Y,Z ==> Vertex 4 {m}

  BuildingSurface:Detailed,
    EL4 South Wall (T.N26.I61)-mirror Reversed,  !- Name
    Wall,                    !- Surface Type
    Interior Wall,           !- Construction Name
    EL4 North Perim Plnm (T.N26),  !- Zone Name
    ,                        !- Space Name
    Surface,                 !- Outside Boundary Condition
    EL4 South Wall (T.N26.I61)-mirror,  !- Outside Boundary Condition Object
    NoSun,                   !- Sun Exposure
    NoWind,                  !- Wind Exposure
    ,                        !- View Factor to Ground
    ,                        !- Number of Vertices
    0,9.150096,12.3444,  !- X,Y,Z ==> Vertex 1 {m}
    0,9.150096,11.8872,  !- X,Y,Z ==> Vertex 2 {m}
    69.598032,9.150096,11.8872,  !- X,Y,Z ==> Vertex 3 {m}
    69.598032,9.150096,12.3444;  !- X,Y,Z ==> Vertex 4 {m}

  BuildingSurface:Detailed,
    EL4 South Wall (T.NNE23.I54)-mirror,  !- Name
    Wall,                    !- Surface Type
    Interior Wall,           !- Construction Name
    Corridor EL4 Core Spc (T.C25),  !- Zone Name
    ,                        !- Space Name
    Surface,                 !- Outside Boundary Condition
    EL4 South Wall (T.NNE23.I54)-mirror Reversed,  !- Outside Boundary Condition Object
    NoSun,                   !- Sun Exposure
    NoWind,                  !- Wind Exposure
    ,                        !- View Factor to Ground
    ,                        !- Number of Vertices
    92.79636,9.150096,11.8872,  !- X,Y,Z ==> Vertex 1 {m}
    92.79636,9.150096,9.4488,  !- X,Y,Z ==> Vertex 2 {m}
    69.598032,9.150096,9.4488,  !- X,Y,Z ==> Vertex 3 {m}
    69.598032,9.150096,11.8872;  !- X,Y,Z ==> Vertex 4 {m}

  BuildingSurface:Detailed,
    EL4 South Wall (T.NNE23.I54)-mirror Reversed,  !- Name
    Wall,                    !- Surface Type
    Interior Wall,           !- Construction Name
    GuestRm EL4 NNE Perim Spc (T.NNE23),  !- Zone Name
    ,                        !- Space Name
    Surface,                 !- Outside Boundary Condition
    EL4 South Wall (T.NNE23.I54)-mirror,  !- Outside Boundary Condition Object
    NoSun,                   !- Sun Exposure
    NoWind,                  !- Wind Exposure
    ,                        !- View Factor to Ground
    ,                        !- Number of Vertices
    69.598032,9.150096,11.8872,  !- X,Y,Z ==> Vertex 1 {m}
    69.598032,9.150096,9.4488,  !- X,Y,Z ==> Vertex 2 {m}
    92.79636,9.150096,9.4488,  !- X,Y,Z ==> Vertex 3 {m}
    92.79636,9.150096,11.8872;  !- X,Y,Z ==> Vertex 4 {m}

  BuildingSurface:Detailed,
    EL4 South Wall (T.NNE28.I65)-mirror,  !- Name
    Wall,                    !- Surface Type
    Interior Wall,           !- Construction Name
    EL4 Core Plnm (T.C30),   !- Zone Name
    ,                        !- Space Name
    Surface,                 !- Outside Boundary Condition
    EL4 South Wall (T.NNE28.I65)-mirror Reversed,  !- Outside Boundary Condition Object
    NoSun,                   !- Sun Exposure
    NoWind,                  !- Wind Exposure
    ,                        !- View Factor to Ground
    ,                        !- Number of Vertices
    92.79636,9.150096,12.3444,  !- X,Y,Z ==> Vertex 1 {m}
    92.79636,9.150096,11.8872,  !- X,Y,Z ==> Vertex 2 {m}
    69.598032,9.150096,11.8872,  !- X,Y,Z ==> Vertex 3 {m}
    69.598032,9.150096,12.3444;  !- X,Y,Z ==> Vertex 4 {m}

  BuildingSurface:Detailed,
    EL4 South Wall (T.NNE28.I65)-mirror Reversed,  !- Name
    Wall,                    !- Surface Type
    Interior Wall,           !- Construction Name
    EL4 NNE Perim Plnm (T.NNE28),  !- Zone Name
    ,                        !- Space Name
    Surface,                 !- Outside Boundary Condition
    EL4 South Wall (T.NNE28.I65)-mirror,  !- Outside Boundary Condition Object
    NoSun,                   !- Sun Exposure
    NoWind,                  !- Wind Exposure
    ,                        !- View Factor to Ground
    ,                        !- Number of Vertices
    69.598032,9.150096,12.3444,  !- X,Y,Z ==> Vertex 1 {m}
    69.598032,9.150096,11.8872,  !- X,Y,Z ==> Vertex 2 {m}
    92.79636,9.150096,11.8872,  !- X,Y,Z ==> Vertex 3 {m}
    92.79636,9.150096,12.3444;  !- X,Y,Z ==> Vertex 4 {m}

  BuildingSurface:Detailed,
    EL4 South Wall (T.S24.E48),  !- Name
    Wall,                    !- Surface Type
    Exterior Wall,           !- Construction Name
    GuestRm EL4 South Perim Spc (T.S24),  !- Zone Name
    ,                        !- Space Name
    Outdoors,                !- Outside Boundary Condition
    ,                        !- Outside Boundary Condition Object
    SunExposed,              !- Sun Exposure
    WindExposed,             !- Wind Exposure
    ,                        !- View Factor to Ground
    ,                        !- Number of Vertices
    23.198328,0,11.8872,  !- X,Y,Z ==> Vertex 1 {m}
    23.198328,0,9.4488,  !- X,Y,Z ==> Vertex 2 {m}
    92.79636,0,9.4488,  !- X,Y,Z ==> Vertex 3 {m}
    92.79636,0,11.8872;  !- X,Y,Z ==> Vertex 4 {m}

  BuildingSurface:Detailed,
    EL4 South Wall (T.S29.E61),  !- Name
    Wall,                    !- Surface Type
    Exterior Wall,           !- Construction Name
    EL4 South Perim Plnm (T.S29),  !- Zone Name
    ,                        !- Space Name
    Outdoors,                !- Outside Boundary Condition
    ,                        !- Outside Boundary Condition Object
    SunExposed,              !- Sun Exposure
    WindExposed,             !- Wind Exposure
    ,                        !- View Factor to Ground
    ,                        !- Number of Vertices
    23.198328,0,12.3444,  !- X,Y,Z ==> Vertex 1 {m}
    23.198328,0,11.8872,  !- X,Y,Z ==> Vertex 2 {m}
    92.79636,0,11.8872,  !- X,Y,Z ==> Vertex 3 {m}
    92.79636,0,12.3444;  !- X,Y,Z ==> Vertex 4 {m}

  BuildingSurface:Detailed,
    EL4 South Wall (T.SSW22.E43),  !- Name
    Wall,                    !- Surface Type
    Exterior Wall,           !- Construction Name
    GuestRm EL4 SSW Perim Spc (T.SSW22),  !- Zone Name
    ,                        !- Space Name
    Outdoors,                !- Outside Boundary Condition
    ,                        !- Outside Boundary Condition Object
    SunExposed,              !- Sun Exposure
    WindExposed,             !- Wind Exposure
    ,                        !- View Factor to Ground
    ,                        !- Number of Vertices
    0,-3.45682824e-07,11.8872,  !- X,Y,Z ==> Vertex 1 {m}
    0,-3.45682824e-07,9.4488,  !- X,Y,Z ==> Vertex 2 {m}
    23.19829752,-3.45682824e-07,9.4488,  !- X,Y,Z ==> Vertex 3 {m}
    23.19829752,-3.45682824e-07,11.8872;  !- X,Y,Z ==> Vertex 4 {m}

  BuildingSurface:Detailed,
    EL4 South Wall (T.SSW27.E54),  !- Name
    Wall,                    !- Surface Type
    Exterior Wall,           !- Construction Name
    EL4 SSW Perim Plnm (T.SSW27),  !- Zone Name
    ,                        !- Space Name
    Outdoors,                !- Outside Boundary Condition
    ,                        !- Outside Boundary Condition Object
    SunExposed,              !- Sun Exposure
    WindExposed,             !- Wind Exposure
    ,                        !- View Factor to Ground
    ,                        !- Number of Vertices
    0,-3.45682824e-07,12.3444,  !- X,Y,Z ==> Vertex 1 {m}
    0,-3.45682824e-07,11.8872,  !- X,Y,Z ==> Vertex 2 {m}
    23.19829752,-3.45682824e-07,11.8872,  !- X,Y,Z ==> Vertex 3 {m}
    23.19829752,-3.45682824e-07,12.3444;  !- X,Y,Z ==> Vertex 4 {m}

  BuildingSurface:Detailed,
    EL4 West Wall (G.C10.E20),  !- Name
    Wall,                    !- Surface Type
    Exterior Wall,           !- Construction Name
    EL4 Core Plnm (G.C10),   !- Zone Name
    ,                        !- Space Name
    Outdoors,                !- Outside Boundary Condition
    ,                        !- Outside Boundary Condition Object
    SunExposed,              !- Sun Exposure
    WindExposed,             !- Wind Exposure
    ,                        !- View Factor to Ground
    ,                        !- Number of Vertices
    0,9.150096,6.5532,  !- X,Y,Z ==> Vertex 1 {m}
    0,9.150096,6.096,  !- X,Y,Z ==> Vertex 2 {m}
    0,7.309104,6.096,  !- X,Y,Z ==> Vertex 3 {m}
    0,7.309104,6.5532;  !- X,Y,Z ==> Vertex 4 {m}

  BuildingSurface:Detailed,
    EL4 West Wall (G.C5.E10),!- Name
    Wall,                    !- Surface Type
    Exterior Wall,           !- Construction Name
    Corridor EL4 Core Spc (G.C5),  !- Zone Name
    ,                        !- Space Name
    Outdoors,                !- Outside Boundary Condition
    ,                        !- Outside Boundary Condition Object
    SunExposed,              !- Sun Exposure
    WindExposed,             !- Wind Exposure
    ,                        !- View Factor to Ground
    ,                        !- Number of Vertices
    0,9.150096,6.096,  !- X,Y,Z ==> Vertex 1 {m}
    0,9.150096,3.6576,  !- X,Y,Z ==> Vertex 2 {m}
    0,7.309104,3.6576,  !- X,Y,Z ==> Vertex 3 {m}
    0,7.309104,6.096;  !- X,Y,Z ==> Vertex 4 {m}

  BuildingSurface:Detailed,
    EL4 West Wall (G.N1.E1), !- Name
    Wall,                    !- Surface Type
    Exterior Wall,           !- Construction Name
    GuestRm EL4 North Perim Spc (G.N1),  !- Zone Name
    ,                        !- Space Name
    Outdoors,                !- Outside Boundary Condition
    ,                        !- Outside Boundary Condition Object
    SunExposed,              !- Sun Exposure
    WindExposed,             !- Wind Exposure
    ,                        !- View Factor to Ground
    ,                        !- Number of Vertices
    0,16.4592,6.096,  !- X,Y,Z ==> Vertex 1 {m}
    0,16.4592,3.6576,  !- X,Y,Z ==> Vertex 2 {m}
    0,9.150096,3.6576,  !- X,Y,Z ==> Vertex 3 {m}
    0,9.150096,6.096;  !- X,Y,Z ==> Vertex 4 {m}

  BuildingSurface:Detailed,
    EL4 West Wall (G.N6.E11),!- Name
    Wall,                    !- Surface Type
    Exterior Wall,           !- Construction Name
    EL4 North Perim Plnm (G.N6),  !- Zone Name
    ,                        !- Space Name
    Outdoors,                !- Outside Boundary Condition
    ,                        !- Outside Boundary Condition Object
    SunExposed,              !- Sun Exposure
    WindExposed,             !- Wind Exposure
    ,                        !- View Factor to Ground
    ,                        !- Number of Vertices
    0,16.4592,6.5532,  !- X,Y,Z ==> Vertex 1 {m}
    0,16.4592,6.096,  !- X,Y,Z ==> Vertex 2 {m}
    0,9.150096,6.096,  !- X,Y,Z ==> Vertex 3 {m}
    0,9.150096,6.5532;  !- X,Y,Z ==> Vertex 4 {m}

  BuildingSurface:Detailed,
    EL4 West Wall (G.SSW2.E4),  !- Name
    Wall,                    !- Surface Type
    Exterior Wall,           !- Construction Name
    GuestRm EL4 SSW Perim Spc (G.SSW2),  !- Zone Name
    ,                        !- Space Name
    Outdoors,                !- Outside Boundary Condition
    ,                        !- Outside Boundary Condition Object
    SunExposed,              !- Sun Exposure
    WindExposed,             !- Wind Exposure
    ,                        !- View Factor to Ground
    ,                        !- Number of Vertices
    0,7.309104,6.096,  !- X,Y,Z ==> Vertex 1 {m}
    0,7.309104,3.6576,  !- X,Y,Z ==> Vertex 2 {m}
    0,-3.45682824e-07,3.6576,  !- X,Y,Z ==> Vertex 3 {m}
    0,-3.45682824e-07,6.096;  !- X,Y,Z ==> Vertex 4 {m}

  BuildingSurface:Detailed,
    EL4 West Wall (G.SSW7.E14),  !- Name
    Wall,                    !- Surface Type
    Exterior Wall,           !- Construction Name
    EL4 SSW Perim Plnm (G.SSW7),  !- Zone Name
    ,                        !- Space Name
    Outdoors,                !- Outside Boundary Condition
    ,                        !- Outside Boundary Condition Object
    SunExposed,              !- Sun Exposure
    WindExposed,             !- Wind Exposure
    ,                        !- View Factor to Ground
    ,                        !- Number of Vertices
    0,7.309104,6.5532,  !- X,Y,Z ==> Vertex 1 {m}
    0,7.309104,6.096,  !- X,Y,Z ==> Vertex 2 {m}
    0,-3.45682824e-07,6.096,  !- X,Y,Z ==> Vertex 3 {m}
    0,-3.45682824e-07,6.5532;  !- X,Y,Z ==> Vertex 4 {m}

  BuildingSurface:Detailed,
    EL4 West Wall (M.C15.E30),  !- Name
    Wall,                    !- Surface Type
    Exterior Wall,           !- Construction Name
    Corridor EL4 Core Spc (M.C15),  !- Zone Name
    ,                        !- Space Name
    Outdoors,                !- Outside Boundary Condition
    ,                        !- Outside Boundary Condition Object
    SunExposed,              !- Sun Exposure
    WindExposed,             !- Wind Exposure
    ,                        !- View Factor to Ground
    ,                        !- Number of Vertices
    0,9.150096,8.9916,  !- X,Y,Z ==> Vertex 1 {m}
    0,9.150096,6.5532,  !- X,Y,Z ==> Vertex 2 {m}
    0,7.309104,6.5532,  !- X,Y,Z ==> Vertex 3 {m}
    0,7.309104,8.9916;  !- X,Y,Z ==> Vertex 4 {m}

  BuildingSurface:Detailed,
    EL4 West Wall (M.C20.E40),  !- Name
    Wall,                    !- Surface Type
    Exterior Wall,           !- Construction Name
    EL4 Core Plnm (M.C20),   !- Zone Name
    ,                        !- Space Name
    Outdoors,                !- Outside Boundary Condition
    ,                        !- Outside Boundary Condition Object
    SunExposed,              !- Sun Exposure
    WindExposed,             !- Wind Exposure
    ,                        !- View Factor to Ground
    ,                        !- Number of Vertices
    0,9.150096,9.4488,  !- X,Y,Z ==> Vertex 1 {m}
    0,9.150096,8.9916,  !- X,Y,Z ==> Vertex 2 {m}
    0,7.309104,8.9916,  !- X,Y,Z ==> Vertex 3 {m}
    0,7.309104,9.4488;  !- X,Y,Z ==> Vertex 4 {m}

  BuildingSurface:Detailed,
    EL4 West Wall (M.N11.E21),  !- Name
    Wall,                    !- Surface Type
    Exterior Wall,           !- Construction Name
    GuestRm EL4 North Perim Spc (M.N11),  !- Zone Name
    ,                        !- Space Name
    Outdoors,                !- Outside Boundary Condition
    ,                        !- Outside Boundary Condition Object
    SunExposed,              !- Sun Exposure
    WindExposed,             !- Wind Exposure
    ,                        !- View Factor to Ground
    ,                        !- Number of Vertices
    0,16.4592,8.9916,  !- X,Y,Z ==> Vertex 1 {m}
    0,16.4592,6.5532,  !- X,Y,Z ==> Vertex 2 {m}
    0,9.150096,6.5532,  !- X,Y,Z ==> Vertex 3 {m}
    0,9.150096,8.9916;  !- X,Y,Z ==> Vertex 4 {m}

  BuildingSurface:Detailed,
    EL4 West Wall (M.N16.E31),  !- Name
    Wall,                    !- Surface Type
    Exterior Wall,           !- Construction Name
    EL4 North Perim Plnm (M.N16),  !- Zone Name
    ,                        !- Space Name
    Outdoors,                !- Outside Boundary Condition
    ,                        !- Outside Boundary Condition Object
    SunExposed,              !- Sun Exposure
    WindExposed,             !- Wind Exposure
    ,                        !- View Factor to Ground
    ,                        !- Number of Vertices
    0,16.4592,9.4488,  !- X,Y,Z ==> Vertex 1 {m}
    0,16.4592,8.9916,  !- X,Y,Z ==> Vertex 2 {m}
    0,9.150096,8.9916,  !- X,Y,Z ==> Vertex 3 {m}
    0,9.150096,9.4488;  !- X,Y,Z ==> Vertex 4 {m}

  BuildingSurface:Detailed,
    EL4 West Wall (M.SSW12.E24),  !- Name
    Wall,                    !- Surface Type
    Exterior Wall,           !- Construction Name
    GuestRm EL4 SSW Perim Spc (M.SSW12),  !- Zone Name
    ,                        !- Space Name
    Outdoors,                !- Outside Boundary Condition
    ,                        !- Outside Boundary Condition Object
    SunExposed,              !- Sun Exposure
    WindExposed,             !- Wind Exposure
    ,                        !- View Factor to Ground
    ,                        !- Number of Vertices
    0,7.309104,8.9916,  !- X,Y,Z ==> Vertex 1 {m}
    0,7.309104,6.5532,  !- X,Y,Z ==> Vertex 2 {m}
    0,-3.45682824e-07,6.5532,  !- X,Y,Z ==> Vertex 3 {m}
    0,-3.45682824e-07,8.9916;  !- X,Y,Z ==> Vertex 4 {m}

  BuildingSurface:Detailed,
    EL4 West Wall (M.SSW17.E34),  !- Name
    Wall,                    !- Surface Type
    Exterior Wall,           !- Construction Name
    EL4 SSW Perim Plnm (M.SSW17),  !- Zone Name
    ,                        !- Space Name
    Outdoors,                !- Outside Boundary Condition
    ,                        !- Outside Boundary Condition Object
    SunExposed,              !- Sun Exposure
    WindExposed,             !- Wind Exposure
    ,                        !- View Factor to Ground
    ,                        !- Number of Vertices
    0,7.309104,9.4488,  !- X,Y,Z ==> Vertex 1 {m}
    0,7.309104,8.9916,  !- X,Y,Z ==> Vertex 2 {m}
    0,-3.45682824e-07,8.9916,  !- X,Y,Z ==> Vertex 3 {m}
    0,-3.45682824e-07,9.4488;  !- X,Y,Z ==> Vertex 4 {m}

  BuildingSurface:Detailed,
    EL4 West Wall (T.C25.E50),  !- Name
    Wall,                    !- Surface Type
    Exterior Wall,           !- Construction Name
    Corridor EL4 Core Spc (T.C25),  !- Zone Name
    ,                        !- Space Name
    Outdoors,                !- Outside Boundary Condition
    ,                        !- Outside Boundary Condition Object
    SunExposed,              !- Sun Exposure
    WindExposed,             !- Wind Exposure
    ,                        !- View Factor to Ground
    ,                        !- Number of Vertices
    0,9.150096,11.8872,  !- X,Y,Z ==> Vertex 1 {m}
    0,9.150096,9.4488,  !- X,Y,Z ==> Vertex 2 {m}
    0,7.309104,9.4488,  !- X,Y,Z ==> Vertex 3 {m}
    0,7.309104,11.8872;  !- X,Y,Z ==> Vertex 4 {m}

  BuildingSurface:Detailed,
    EL4 West Wall (T.C30.E64),  !- Name
    Wall,                    !- Surface Type
    Exterior Wall,           !- Construction Name
    EL4 Core Plnm (T.C30),   !- Zone Name
    ,                        !- Space Name
    Outdoors,                !- Outside Boundary Condition
    ,                        !- Outside Boundary Condition Object
    SunExposed,              !- Sun Exposure
    WindExposed,             !- Wind Exposure
    ,                        !- View Factor to Ground
    ,                        !- Number of Vertices
    0,9.150096,12.3444,  !- X,Y,Z ==> Vertex 1 {m}
    0,9.150096,11.8872,  !- X,Y,Z ==> Vertex 2 {m}
    0,7.309104,11.8872,  !- X,Y,Z ==> Vertex 3 {m}
    0,7.309104,12.3444;  !- X,Y,Z ==> Vertex 4 {m}

  BuildingSurface:Detailed,
    EL4 West Wall (T.N21.E41),  !- Name
    Wall,                    !- Surface Type
    Exterior Wall,           !- Construction Name
    GuestRm EL4 North Perim Spc (T.N21),  !- Zone Name
    ,                        !- Space Name
    Outdoors,                !- Outside Boundary Condition
    ,                        !- Outside Boundary Condition Object
    SunExposed,              !- Sun Exposure
    WindExposed,             !- Wind Exposure
    ,                        !- View Factor to Ground
    ,                        !- Number of Vertices
    0,16.4592,11.8872,  !- X,Y,Z ==> Vertex 1 {m}
    0,16.4592,9.4488,  !- X,Y,Z ==> Vertex 2 {m}
    0,9.150096,9.4488,  !- X,Y,Z ==> Vertex 3 {m}
    0,9.150096,11.8872;  !- X,Y,Z ==> Vertex 4 {m}

  BuildingSurface:Detailed,
    EL4 West Wall (T.N26.E51),  !- Name
    Wall,                    !- Surface Type
    Exterior Wall,           !- Construction Name
    EL4 North Perim Plnm (T.N26),  !- Zone Name
    ,                        !- Space Name
    Outdoors,                !- Outside Boundary Condition
    ,                        !- Outside Boundary Condition Object
    SunExposed,              !- Sun Exposure
    WindExposed,             !- Wind Exposure
    ,                        !- View Factor to Ground
    ,                        !- Number of Vertices
    0,16.4592,12.3444,  !- X,Y,Z ==> Vertex 1 {m}
    0,16.4592,11.8872,  !- X,Y,Z ==> Vertex 2 {m}
    0,9.150096,11.8872,  !- X,Y,Z ==> Vertex 3 {m}
    0,9.150096,12.3444;  !- X,Y,Z ==> Vertex 4 {m}

  BuildingSurface:Detailed,
    EL4 West Wall (T.SSW22.E44),  !- Name
    Wall,                    !- Surface Type
    Exterior Wall,           !- Construction Name
    GuestRm EL4 SSW Perim Spc (T.SSW22),  !- Zone Name
    ,                        !- Space Name
    Outdoors,                !- Outside Boundary Condition
    ,                        !- Outside Boundary Condition Object
    SunExposed,              !- Sun Exposure
    WindExposed,             !- Wind Exposure
    ,                        !- View Factor to Ground
    ,                        !- Number of Vertices
    0,7.309104,11.8872,  !- X,Y,Z ==> Vertex 1 {m}
    0,7.309104,9.4488,  !- X,Y,Z ==> Vertex 2 {m}
    0,-3.45682824e-07,9.4488,  !- X,Y,Z ==> Vertex 3 {m}
    0,-3.45682824e-07,11.8872;  !- X,Y,Z ==> Vertex 4 {m}

  BuildingSurface:Detailed,
    EL4 West Wall (T.SSW27.E55),  !- Name
    Wall,                    !- Surface Type
    Exterior Wall,           !- Construction Name
    EL4 SSW Perim Plnm (T.SSW27),  !- Zone Name
    ,                        !- Space Name
    Outdoors,                !- Outside Boundary Condition
    ,                        !- Outside Boundary Condition Object
    SunExposed,              !- Sun Exposure
    WindExposed,             !- Wind Exposure
    ,                        !- View Factor to Ground
    ,                        !- Number of Vertices
    0,7.309104,12.3444,  !- X,Y,Z ==> Vertex 1 {m}
    0,7.309104,11.8872,  !- X,Y,Z ==> Vertex 2 {m}
    0,-3.45682824e-07,11.8872,  !- X,Y,Z ==> Vertex 3 {m}
    0,-3.45682824e-07,12.3444;  !- X,Y,Z ==> Vertex 4 {m}

  FenestrationSurface:Detailed,
    EL1 North Win (G.E3.E5.W1),  !- Name
    Window,                  !- Surface Type
    Exterior Window,         !- Construction Name
    EL1 North Wall (G.E3.E5),!- Building Surface Name
    ,                        !- Outside Boundary Condition Object
    ,                        !- View Factor to Ground
    ,                        !- Frame and Divider Name
    ,                        !- Multiplier
    ,                        !- Number of Vertices
    86.7966768,16.4592,2.505456,  !- X,Y,Z ==> Vertex 1 {m}
    86.7966768,16.4592,0.9144,  !- X,Y,Z ==> Vertex 2 {m}
    75.5977152,16.4592,0.9144,  !- X,Y,Z ==> Vertex 3 {m}
    75.5977152,16.4592,2.505456;  !- X,Y,Z ==> Vertex 4 {m}

  FenestrationSurface:Detailed,
    EL1 North Win (G.W1.E2.W1),  !- Name
    Window,                  !- Surface Type
    Exterior Window,         !- Construction Name
    EL1 North Wall (G.W1.E2),!- Building Surface Name
    ,                        !- Outside Boundary Condition Object
    ,                        !- View Factor to Ground
    ,                        !- Frame and Divider Name
    ,                        !- Multiplier
    ,                        !- Number of Vertices
    17.19876672,16.4592,2.505456,  !- X,Y,Z ==> Vertex 1 {m}
    17.19876672,16.4592,0.9144,  !- X,Y,Z ==> Vertex 2 {m}
    5.99956128,16.4592,0.9144,  !- X,Y,Z ==> Vertex 3 {m}
    5.99956128,16.4592,2.505456;  !- X,Y,Z ==> Vertex 4 {m}

  FenestrationSurface:Detailed,
    EL1 North Win (G.W2.E4.W1),  !- Name
    Window,                  !- Surface Type
    Exterior Window,         !- Construction Name
    EL1 North Wall (G.W2.E4),!- Building Surface Name
    ,                        !- Outside Boundary Condition Object
    ,                        !- View Factor to Ground
    ,                        !- Frame and Divider Name
    ,                        !- Multiplier
    ,                        !- Number of Vertices
    57.598056,16.4592,2.505456,  !- X,Y,Z ==> Vertex 1 {m}
    57.598056,16.4592,0.9144,  !- X,Y,Z ==> Vertex 2 {m}
    35.198304,16.4592,0.9144,  !- X,Y,Z ==> Vertex 3 {m}
    35.198304,16.4592,2.505456;  !- X,Y,Z ==> Vertex 4 {m}

  FenestrationSurface:Detailed,
    EL1 South Win (G.E3.E6.W1),  !- Name
    Window,                  !- Surface Type
    Exterior Window,         !- Construction Name
    EL1 South Wall (G.E3.E6),!- Building Surface Name
    ,                        !- Outside Boundary Condition Object
    ,                        !- View Factor to Ground
    ,                        !- Frame and Divider Name
    ,                        !- Multiplier
    ,                        !- Number of Vertices
    75.5977152,-1.136465088e-14,2.505456,  !- X,Y,Z ==> Vertex 1 {m}
    75.5977152,-1.136465088e-14,0.9144,  !- X,Y,Z ==> Vertex 2 {m}
    86.7966768,-1.136465088e-14,0.9144,  !- X,Y,Z ==> Vertex 3 {m}
    86.7966768,-1.136465088e-14,2.505456;  !- X,Y,Z ==> Vertex 4 {m}

  FenestrationSurface:Detailed,
    EL1 South Win (G.W1.E1.W1),  !- Name
    Window,                  !- Surface Type
    Exterior Window,         !- Construction Name
    EL1 South Wall (G.W1.E1),!- Building Surface Name
    ,                        !- Outside Boundary Condition Object
    ,                        !- View Factor to Ground
    ,                        !- Frame and Divider Name
    ,                        !- Multiplier
    ,                        !- Number of Vertices
    5.99956128,-3.45682824e-07,2.505456,  !- X,Y,Z ==> Vertex 1 {m}
    5.99956128,-3.45682824e-07,0.9144,  !- X,Y,Z ==> Vertex 2 {m}
    17.19876672,-3.45682824e-07,0.9144,  !- X,Y,Z ==> Vertex 3 {m}
    17.19876672,-3.45682824e-07,2.505456;  !- X,Y,Z ==> Vertex 4 {m}

  FenestrationSurface:Detailed,
    EL1 South Win (G.W2.E3.W1),  !- Name
    Window,                  !- Surface Type
    Exterior Window,         !- Construction Name
    EL1 South Wall (G.W2.E3),!- Building Surface Name
    ,                        !- Outside Boundary Condition Object
    ,                        !- View Factor to Ground
    ,                        !- Frame and Divider Name
    ,                        !- Multiplier
    ,                        !- Number of Vertices
    35.198304,-3.45682824e-07,2.505456,  !- X,Y,Z ==> Vertex 1 {m}
    35.198304,-3.45682824e-07,0.9144,  !- X,Y,Z ==> Vertex 2 {m}
    57.598056,-3.45682824e-07,0.9144,  !- X,Y,Z ==> Vertex 3 {m}
    57.598056,-3.45682824e-07,2.505456;  !- X,Y,Z ==> Vertex 4 {m}

  FenestrationSurface:Detailed,
    EL2 North Win (G.N2.E3.W1),  !- Name
    Window,                  !- Surface Type
    Exterior Window,         !- Construction Name
    EL2 North Wall (G.N2.E3),!- Building Surface Name
    ,                        !- Outside Boundary Condition Object
    ,                        !- View Factor to Ground
    ,                        !- Frame and Divider Name
    ,                        !- Multiplier
    ,                        !- Number of Vertices
    -2.477182752,16.4592,2.505456,  !- X,Y,Z ==> Vertex 1 {m}
    -2.477182752,16.4592,0.9144,  !- X,Y,Z ==> Vertex 2 {m}
    -5.41714944,16.4592,0.9144,  !- X,Y,Z ==> Vertex 3 {m}
    -5.41714944,16.4592,2.505456;  !- X,Y,Z ==> Vertex 4 {m}

  FenestrationSurface:Detailed,
    EL2 West Win (G.N2.E4.W1),  !- Name
    Window,                  !- Surface Type
    Exterior Window,         !- Construction Name
    EL2 West Wall (G.N2.E4), !- Building Surface Name
    ,                        !- Outside Boundary Condition Object
    ,                        !- View Factor to Ground
    ,                        !- Frame and Divider Name
    ,                        !- Multiplier
    ,                        !- Number of Vertices
    -7.89432,14.15030952,2.505456,  !- X,Y,Z ==> Vertex 1 {m}
    -7.89432,14.15030952,0.9144,  !- X,Y,Z ==> Vertex 2 {m}
    -7.89432,11.41015752,0.9144,  !- X,Y,Z ==> Vertex 3 {m}
    -7.89432,11.41015752,2.505456;  !- X,Y,Z ==> Vertex 4 {m}

  FenestrationSurface:Detailed,
    EL2 West Win (G.S1.E2.W1),  !- Name
    Window,                  !- Surface Type
    Exterior Window,         !- Construction Name
    EL2 West Wall (G.S1.E2), !- Building Surface Name
    ,                        !- Outside Boundary Condition Object
    ,                        !- View Factor to Ground
    ,                        !- Frame and Divider Name
    ,                        !- Multiplier
    ,                        !- Number of Vertices
    -7.89432,3.01602648,2.505456,  !- X,Y,Z ==> Vertex 1 {m}
    -7.89432,3.01602648,0.9144,  !- X,Y,Z ==> Vertex 2 {m}
    -7.89432,1.379186472,0.9144,  !- X,Y,Z ==> Vertex 3 {m}
    -7.89432,1.379186472,2.505456;  !- X,Y,Z ==> Vertex 4 {m}

  FenestrationSurface:Detailed,
    EL2 West Win (G.W3.E5.W1),  !- Name
    Window,                  !- Surface Type
    Exterior Window,         !- Construction Name
    EL2 West Wall (G.W3.E5), !- Building Surface Name
    ,                        !- Outside Boundary Condition Object
    ,                        !- View Factor to Ground
    ,                        !- Frame and Divider Name
    ,                        !- Multiplier
    ,                        !- Number of Vertices
    -7.89432,7.624572,2.505456,  !- X,Y,Z ==> Vertex 1 {m}
    -7.89432,7.624572,0.9144,  !- X,Y,Z ==> Vertex 2 {m}
    -7.89432,5.87194152,0.9144,  !- X,Y,Z ==> Vertex 3 {m}
    -7.89432,5.87194152,2.505456;  !- X,Y,Z ==> Vertex 4 {m}

  FenestrationSurface:Detailed,
    EL3 East Win (G.N1.E2.W1),  !- Name
    Window,                  !- Surface Type
    Exterior Window,         !- Construction Name
    EL3 East Wall (G.N1.E2), !- Building Surface Name
    ,                        !- Outside Boundary Condition Object
    ,                        !- View Factor to Ground
    ,                        !- Frame and Divider Name
    ,                        !- Multiplier
    ,                        !- Number of Vertices
    100.69068,13.443204,2.505456,  !- X,Y,Z ==> Vertex 1 {m}
    100.69068,13.443204,0.9144,  !- X,Y,Z ==> Vertex 2 {m}
    100.69068,15.08004096,0.9144,  !- X,Y,Z ==> Vertex 3 {m}
    100.69068,15.08004096,2.505456;  !- X,Y,Z ==> Vertex 4 {m}

  FenestrationSurface:Detailed,
    EL3 East Win (G.S2.E4.W1),  !- Name
    Window,                  !- Surface Type
    Exterior Window,         !- Construction Name
    EL3 East Wall (G.S2.E4), !- Building Surface Name
    ,                        !- Outside Boundary Condition Object
    ,                        !- View Factor to Ground
    ,                        !- Frame and Divider Name
    ,                        !- Multiplier
    ,                        !- Number of Vertices
    100.69068,2.308850856,2.505456,  !- X,Y,Z ==> Vertex 1 {m}
    100.69068,2.308850856,0.9144,  !- X,Y,Z ==> Vertex 2 {m}
    100.69068,5.049012,0.9144,  !- X,Y,Z ==> Vertex 3 {m}
    100.69068,5.049012,2.505456;  !- X,Y,Z ==> Vertex 4 {m}

  FenestrationSurface:Detailed,
    EL3 East Win (G.W3.E5.W1),  !- Name
    Window,                  !- Surface Type
    Exterior Window,         !- Construction Name
    EL3 East Wall (G.W3.E5), !- Building Surface Name
    ,                        !- Outside Boundary Condition Object
    ,                        !- View Factor to Ground
    ,                        !- Frame and Divider Name
    ,                        !- Multiplier
    ,                        !- Number of Vertices
    100.69068,8.83465848,2.505456,  !- X,Y,Z ==> Vertex 1 {m}
    100.69068,8.83465848,0.9144,  !- X,Y,Z ==> Vertex 2 {m}
    100.69068,10.58725848,0.9144,  !- X,Y,Z ==> Vertex 3 {m}
    100.69068,10.58725848,2.505456;  !- X,Y,Z ==> Vertex 4 {m}

  FenestrationSurface:Detailed,
    EL3 South Win (G.S2.E3.W1),  !- Name
    Window,                  !- Surface Type
    Exterior Window,         !- Construction Name
    EL3 South Wall (G.S2.E3),!- Building Surface Name
    ,                        !- Outside Boundary Condition Object
    ,                        !- View Factor to Ground
    ,                        !- Frame and Divider Name
    ,                        !- Multiplier
    ,                        !- Number of Vertices
    95.2734696,-1.17634512e-07,2.505456,  !- X,Y,Z ==> Vertex 1 {m}
    95.2734696,-1.17634512e-07,0.9144,  !- X,Y,Z ==> Vertex 2 {m}
    98.2135704,-1.17634512e-07,0.9144,  !- X,Y,Z ==> Vertex 3 {m}
    98.2135704,-1.17634512e-07,2.505456;  !- X,Y,Z ==> Vertex 4 {m}

  FenestrationSurface:Detailed,
    EL4 East Win (G.C5.E9.W1),  !- Name
    Window,                  !- Surface Type
    Exterior Window,         !- Construction Name
    EL4 East Wall (G.C5.E9), !- Building Surface Name
    ,                        !- Outside Boundary Condition Object
    ,                        !- View Factor to Ground
    ,                        !- Frame and Divider Name
    ,                        !- Multiplier
    ,                        !- Number of Vertices
    92.79636,7.80985992,6.096,  !- X,Y,Z ==> Vertex 1 {m}
    92.79636,7.80985992,4.572,  !- X,Y,Z ==> Vertex 2 {m}
    92.79636,8.64934008,4.572,  !- X,Y,Z ==> Vertex 3 {m}
    92.79636,8.64934008,6.096;  !- X,Y,Z ==> Vertex 4 {m}

  FenestrationSurface:Detailed,
    EL4 East Win (G.NNE3.E6.W1),  !- Name
    Window,                  !- Surface Type
    Exterior Window,         !- Construction Name
    EL4 East Wall (G.NNE3.E6),  !- Building Surface Name
    ,                        !- Outside Boundary Condition Object
    ,                        !- View Factor to Ground
    ,                        !- Frame and Divider Name
    ,                        !- Multiplier
    ,                        !- Number of Vertices
    92.79636,10.14414024,6.096,  !- X,Y,Z ==> Vertex 1 {m}
    92.79636,10.14414024,4.572,  !- X,Y,Z ==> Vertex 2 {m}
    92.79636,12.58254024,4.572,  !- X,Y,Z ==> Vertex 3 {m}
    92.79636,12.58254024,6.096;  !- X,Y,Z ==> Vertex 4 {m}

  FenestrationSurface:Detailed,
    EL4 East Win (G.NNE3.E6.W2),  !- Name
    Window,                  !- Surface Type
    Exterior Window,         !- Construction Name
    EL4 East Wall (G.NNE3.E6),  !- Building Surface Name
    ,                        !- Outside Boundary Condition Object
    ,                        !- View Factor to Ground
    ,                        !- Frame and Divider Name
    ,                        !- Multiplier
    ,                        !- Number of Vertices
    92.79636,14.57059824,6.096,  !- X,Y,Z ==> Vertex 1 {m}
    92.79636,14.57059824,4.572,  !- X,Y,Z ==> Vertex 2 {m}
    92.79636,15.46515576,4.572,  !- X,Y,Z ==> Vertex 3 {m}
    92.79636,15.46515576,6.096;  !- X,Y,Z ==> Vertex 4 {m}

  FenestrationSurface:Detailed,
    EL4 East Win (G.S4.E7.W1),  !- Name
    Window,                  !- Surface Type
    Exterior Window,         !- Construction Name
    EL4 East Wall (G.S4.E7), !- Building Surface Name
    ,                        !- Outside Boundary Condition Object
    ,                        !- View Factor to Ground
    ,                        !- Frame and Divider Name
    ,                        !- Multiplier
    ,                        !- Number of Vertices
    92.79636,0.994038144,6.096,  !- X,Y,Z ==> Vertex 1 {m}
    92.79636,0.994038144,4.572,  !- X,Y,Z ==> Vertex 2 {m}
    92.79636,3.43244424,4.572,  !- X,Y,Z ==> Vertex 3 {m}
    92.79636,3.43244424,6.096;  !- X,Y,Z ==> Vertex 4 {m}

  FenestrationSurface:Detailed,
    EL4 East Win (G.S4.E7.W2),  !- Name
    Window,                  !- Surface Type
    Exterior Window,         !- Construction Name
    EL4 East Wall (G.S4.E7), !- Building Surface Name
    ,                        !- Outside Boundary Condition Object
    ,                        !- View Factor to Ground
    ,                        !- Frame and Divider Name
    ,                        !- Multiplier
    ,                        !- Number of Vertices
    92.79636,5.42050224,6.096,  !- X,Y,Z ==> Vertex 1 {m}
    92.79636,5.42050224,4.572,  !- X,Y,Z ==> Vertex 2 {m}
    92.79636,6.31505976,4.572,  !- X,Y,Z ==> Vertex 3 {m}
    92.79636,6.31505976,6.096;  !- X,Y,Z ==> Vertex 4 {m}

  FenestrationSurface:Detailed,
    EL4 East Win (M.C15.E29.W1),  !- Name
    Window,                  !- Surface Type
    Exterior Window,         !- Construction Name
    EL4 East Wall (M.C15.E29),  !- Building Surface Name
    ,                        !- Outside Boundary Condition Object
    ,                        !- View Factor to Ground
    ,                        !- Frame and Divider Name
    ,                        !- Multiplier
    ,                        !- Number of Vertices
    92.79636,7.80985992,8.9916,  !- X,Y,Z ==> Vertex 1 {m}
    92.79636,7.80985992,7.4676,  !- X,Y,Z ==> Vertex 2 {m}
    92.79636,8.64934008,7.4676,  !- X,Y,Z ==> Vertex 3 {m}
    92.79636,8.64934008,8.9916;  !- X,Y,Z ==> Vertex 4 {m}

  FenestrationSurface:Detailed,
    EL4 East Win (M.NNE13.E26.W1),  !- Name
    Window,                  !- Surface Type
    Exterior Window,         !- Construction Name
    EL4 East Wall (M.NNE13.E26),  !- Building Surface Name
    ,                        !- Outside Boundary Condition Object
    ,                        !- View Factor to Ground
    ,                        !- Frame and Divider Name
    ,                        !- Multiplier
    ,                        !- Number of Vertices
    92.79636,10.14414024,8.9916,  !- X,Y,Z ==> Vertex 1 {m}
    92.79636,10.14414024,7.4676,  !- X,Y,Z ==> Vertex 2 {m}
    92.79636,12.58254024,7.4676,  !- X,Y,Z ==> Vertex 3 {m}
    92.79636,12.58254024,8.9916;  !- X,Y,Z ==> Vertex 4 {m}

  FenestrationSurface:Detailed,
    EL4 East Win (M.NNE13.E26.W2),  !- Name
    Window,                  !- Surface Type
    Exterior Window,         !- Construction Name
    EL4 East Wall (M.NNE13.E26),  !- Building Surface Name
    ,                        !- Outside Boundary Condition Object
    ,                        !- View Factor to Ground
    ,                        !- Frame and Divider Name
    ,                        !- Multiplier
    ,                        !- Number of Vertices
    92.79636,14.57059824,8.9916,  !- X,Y,Z ==> Vertex 1 {m}
    92.79636,14.57059824,7.4676,  !- X,Y,Z ==> Vertex 2 {m}
    92.79636,15.46515576,7.4676,  !- X,Y,Z ==> Vertex 3 {m}
    92.79636,15.46515576,8.9916;  !- X,Y,Z ==> Vertex 4 {m}

  FenestrationSurface:Detailed,
    EL4 East Win (M.S14.E27.W1),  !- Name
    Window,                  !- Surface Type
    Exterior Window,         !- Construction Name
    EL4 East Wall (M.S14.E27),  !- Building Surface Name
    ,                        !- Outside Boundary Condition Object
    ,                        !- View Factor to Ground
    ,                        !- Frame and Divider Name
    ,                        !- Multiplier
    ,                        !- Number of Vertices
    92.79636,0.994038144,8.9916,  !- X,Y,Z ==> Vertex 1 {m}
    92.79636,0.994038144,7.4676,  !- X,Y,Z ==> Vertex 2 {m}
    92.79636,3.43244424,7.4676,  !- X,Y,Z ==> Vertex 3 {m}
    92.79636,3.43244424,8.9916;  !- X,Y,Z ==> Vertex 4 {m}

  FenestrationSurface:Detailed,
    EL4 East Win (M.S14.E27.W2),  !- Name
    Window,                  !- Surface Type
    Exterior Window,         !- Construction Name
    EL4 East Wall (M.S14.E27),  !- Building Surface Name
    ,                        !- Outside Boundary Condition Object
    ,                        !- View Factor to Ground
    ,                        !- Frame and Divider Name
    ,                        !- Multiplier
    ,                        !- Number of Vertices
    92.79636,5.42050224,8.9916,  !- X,Y,Z ==> Vertex 1 {m}
    92.79636,5.42050224,7.4676,  !- X,Y,Z ==> Vertex 2 {m}
    92.79636,6.31505976,7.4676,  !- X,Y,Z ==> Vertex 3 {m}
    92.79636,6.31505976,8.9916;  !- X,Y,Z ==> Vertex 4 {m}

  FenestrationSurface:Detailed,
    EL4 East Win (T.C25.E49.W1),  !- Name
    Window,                  !- Surface Type
    Exterior Window,         !- Construction Name
    EL4 East Wall (T.C25.E49),  !- Building Surface Name
    ,                        !- Outside Boundary Condition Object
    ,                        !- View Factor to Ground
    ,                        !- Frame and Divider Name
    ,                        !- Multiplier
    ,                        !- Number of Vertices
    92.79636,7.80985992,11.8872,  !- X,Y,Z ==> Vertex 1 {m}
    92.79636,7.80985992,10.3632,  !- X,Y,Z ==> Vertex 2 {m}
    92.79636,8.64934008,10.3632,  !- X,Y,Z ==> Vertex 3 {m}
    92.79636,8.64934008,11.8872;  !- X,Y,Z ==> Vertex 4 {m}

  FenestrationSurface:Detailed,
    EL4 East Win (T.NNE23.E46.W1),  !- Name
    Window,                  !- Surface Type
    Exterior Window,         !- Construction Name
    EL4 East Wall (T.NNE23.E46),  !- Building Surface Name
    ,                        !- Outside Boundary Condition Object
    ,                        !- View Factor to Ground
    ,                        !- Frame and Divider Name
    ,                        !- Multiplier
    ,                        !- Number of Vertices
    92.79636,10.14414024,11.8872,  !- X,Y,Z ==> Vertex 1 {m}
    92.79636,10.14414024,10.3632,  !- X,Y,Z ==> Vertex 2 {m}
    92.79636,12.58254024,10.3632,  !- X,Y,Z ==> Vertex 3 {m}
    92.79636,12.58254024,11.8872;  !- X,Y,Z ==> Vertex 4 {m}

  FenestrationSurface:Detailed,
    EL4 East Win (T.NNE23.E46.W2),  !- Name
    Window,                  !- Surface Type
    Exterior Window,         !- Construction Name
    EL4 East Wall (T.NNE23.E46),  !- Building Surface Name
    ,                        !- Outside Boundary Condition Object
    ,                        !- View Factor to Ground
    ,                        !- Frame and Divider Name
    ,                        !- Multiplier
    ,                        !- Number of Vertices
    92.79636,14.57059824,11.8872,  !- X,Y,Z ==> Vertex 1 {m}
    92.79636,14.57059824,10.3632,  !- X,Y,Z ==> Vertex 2 {m}
    92.79636,15.46515576,10.3632,  !- X,Y,Z ==> Vertex 3 {m}
    92.79636,15.46515576,11.8872;  !- X,Y,Z ==> Vertex 4 {m}

  FenestrationSurface:Detailed,
    EL4 East Win (T.S24.E47.W1),  !- Name
    Window,                  !- Surface Type
    Exterior Window,         !- Construction Name
    EL4 East Wall (T.S24.E47),  !- Building Surface Name
    ,                        !- Outside Boundary Condition Object
    ,                        !- View Factor to Ground
    ,                        !- Frame and Divider Name
    ,                        !- Multiplier
    ,                        !- Number of Vertices
    92.79636,0.994038144,11.8872,  !- X,Y,Z ==> Vertex 1 {m}
    92.79636,0.994038144,10.3632,  !- X,Y,Z ==> Vertex 2 {m}
    92.79636,3.43244424,10.3632,  !- X,Y,Z ==> Vertex 3 {m}
    92.79636,3.43244424,11.8872;  !- X,Y,Z ==> Vertex 4 {m}

  FenestrationSurface:Detailed,
    EL4 East Win (T.S24.E47.W2),  !- Name
    Window,                  !- Surface Type
    Exterior Window,         !- Construction Name
    EL4 East Wall (T.S24.E47),  !- Building Surface Name
    ,                        !- Outside Boundary Condition Object
    ,                        !- View Factor to Ground
    ,                        !- Frame and Divider Name
    ,                        !- Multiplier
    ,                        !- Number of Vertices
    92.79636,5.42050224,11.8872,  !- X,Y,Z ==> Vertex 1 {m}
    92.79636,5.42050224,10.3632,  !- X,Y,Z ==> Vertex 2 {m}
    92.79636,6.31505976,10.3632,  !- X,Y,Z ==> Vertex 3 {m}
    92.79636,6.31505976,11.8872;  !- X,Y,Z ==> Vertex 4 {m}

  FenestrationSurface:Detailed,
    EL4 North Win (G.N1.E2.W1),  !- Name
    Window,                  !- Surface Type
    Exterior Window,         !- Construction Name
    EL4 North Wall (G.N1.E2),!- Building Surface Name
    ,                        !- Outside Boundary Condition Object
    ,                        !- View Factor to Ground
    ,                        !- Frame and Divider Name
    ,                        !- Multiplier
    ,                        !- Number of Vertices
    68.1404784,16.4592,6.096,  !- X,Y,Z ==> Vertex 1 {m}
    68.1404784,16.4592,4.572,  !- X,Y,Z ==> Vertex 2 {m}
    65.7020784,16.4592,4.572,  !- X,Y,Z ==> Vertex 3 {m}
    65.7020784,16.4592,6.096;  !- X,Y,Z ==> Vertex 4 {m}

  FenestrationSurface:Detailed,
    EL4 North Win (G.N1.E2.W10),  !- Name
    Window,                  !- Surface Type
    Exterior Window,         !- Construction Name
    EL4 North Wall (G.N1.E2),!- Building Surface Name
    ,                        !- Outside Boundary Condition Object
    ,                        !- View Factor to Ground
    ,                        !- Frame and Divider Name
    ,                        !- Multiplier
    ,                        !- Number of Vertices
    19.9570848,16.4592,6.096,  !- X,Y,Z ==> Vertex 1 {m}
    19.9570848,16.4592,4.572,  !- X,Y,Z ==> Vertex 2 {m}
    17.5186848,16.4592,4.572,  !- X,Y,Z ==> Vertex 3 {m}
    17.5186848,16.4592,6.096;  !- X,Y,Z ==> Vertex 4 {m}

  FenestrationSurface:Detailed,
    EL4 North Win (G.N1.E2.W11),  !- Name
    Window,                  !- Surface Type
    Exterior Window,         !- Construction Name
    EL4 North Wall (G.N1.E2),!- Building Surface Name
    ,                        !- Outside Boundary Condition Object
    ,                        !- View Factor to Ground
    ,                        !- Frame and Divider Name
    ,                        !- Multiplier
    ,                        !- Number of Vertices
    14.6035776,16.4592,6.096,  !- X,Y,Z ==> Vertex 1 {m}
    14.6035776,16.4592,4.572,  !- X,Y,Z ==> Vertex 2 {m}
    12.1651776,16.4592,4.572,  !- X,Y,Z ==> Vertex 3 {m}
    12.1651776,16.4592,6.096;  !- X,Y,Z ==> Vertex 4 {m}

  FenestrationSurface:Detailed,
    EL4 North Win (G.N1.E2.W12),  !- Name
    Window,                  !- Surface Type
    Exterior Window,         !- Construction Name
    EL4 North Wall (G.N1.E2),!- Building Surface Name
    ,                        !- Outside Boundary Condition Object
    ,                        !- View Factor to Ground
    ,                        !- Frame and Divider Name
    ,                        !- Multiplier
    ,                        !- Number of Vertices
    9.2497656,16.4592,6.096,  !- X,Y,Z ==> Vertex 1 {m}
    9.2497656,16.4592,4.572,  !- X,Y,Z ==> Vertex 2 {m}
    6.8113656,16.4592,4.572,  !- X,Y,Z ==> Vertex 3 {m}
    6.8113656,16.4592,6.096;  !- X,Y,Z ==> Vertex 4 {m}

  FenestrationSurface:Detailed,
    EL4 North Win (G.N1.E2.W13),  !- Name
    Window,                  !- Surface Type
    Exterior Window,         !- Construction Name
    EL4 North Wall (G.N1.E2),!- Building Surface Name
    ,                        !- Outside Boundary Condition Object
    ,                        !- View Factor to Ground
    ,                        !- Frame and Divider Name
    ,                        !- Multiplier
    ,                        !- Number of Vertices
    3.8959536,16.4592,6.096,  !- X,Y,Z ==> Vertex 1 {m}
    3.8959536,16.4592,4.572,  !- X,Y,Z ==> Vertex 2 {m}
    1.4575536,16.4592,4.572,  !- X,Y,Z ==> Vertex 3 {m}
    1.4575536,16.4592,6.096;  !- X,Y,Z ==> Vertex 4 {m}

  FenestrationSurface:Detailed,
    EL4 North Win (G.N1.E2.W2),  !- Name
    Window,                  !- Surface Type
    Exterior Window,         !- Construction Name
    EL4 North Wall (G.N1.E2),!- Building Surface Name
    ,                        !- Outside Boundary Condition Object
    ,                        !- View Factor to Ground
    ,                        !- Frame and Divider Name
    ,                        !- Multiplier
    ,                        !- Number of Vertices
    62.7866664,16.4592,6.096,  !- X,Y,Z ==> Vertex 1 {m}
    62.7866664,16.4592,4.572,  !- X,Y,Z ==> Vertex 2 {m}
    60.3482664,16.4592,4.572,  !- X,Y,Z ==> Vertex 3 {m}
    60.3482664,16.4592,6.096;  !- X,Y,Z ==> Vertex 4 {m}

  FenestrationSurface:Detailed,
    EL4 North Win (G.N1.E2.W3),  !- Name
    Window,                  !- Surface Type
    Exterior Window,         !- Construction Name
    EL4 North Wall (G.N1.E2),!- Building Surface Name
    ,                        !- Outside Boundary Condition Object
    ,                        !- View Factor to Ground
    ,                        !- Frame and Divider Name
    ,                        !- Multiplier
    ,                        !- Number of Vertices
    57.4328544,16.4592,6.096,  !- X,Y,Z ==> Vertex 1 {m}
    57.4328544,16.4592,4.572,  !- X,Y,Z ==> Vertex 2 {m}
    54.9944544,16.4592,4.572,  !- X,Y,Z ==> Vertex 3 {m}
    54.9944544,16.4592,6.096;  !- X,Y,Z ==> Vertex 4 {m}

  FenestrationSurface:Detailed,
    EL4 North Win (G.N1.E2.W4),  !- Name
    Window,                  !- Surface Type
    Exterior Window,         !- Construction Name
    EL4 North Wall (G.N1.E2),!- Building Surface Name
    ,                        !- Outside Boundary Condition Object
    ,                        !- View Factor to Ground
    ,                        !- Frame and Divider Name
    ,                        !- Multiplier
    ,                        !- Number of Vertices
    52.0793472,16.4592,6.096,  !- X,Y,Z ==> Vertex 1 {m}
    52.0793472,16.4592,4.572,  !- X,Y,Z ==> Vertex 2 {m}
    49.6409472,16.4592,4.572,  !- X,Y,Z ==> Vertex 3 {m}
    49.6409472,16.4592,6.096;  !- X,Y,Z ==> Vertex 4 {m}

  FenestrationSurface:Detailed,
    EL4 North Win (G.N1.E2.W5),  !- Name
    Window,                  !- Surface Type
    Exterior Window,         !- Construction Name
    EL4 North Wall (G.N1.E2),!- Building Surface Name
    ,                        !- Outside Boundary Condition Object
    ,                        !- View Factor to Ground
    ,                        !- Frame and Divider Name
    ,                        !- Multiplier
    ,                        !- Number of Vertices
    46.7255352,16.4592,6.096,  !- X,Y,Z ==> Vertex 1 {m}
    46.7255352,16.4592,4.572,  !- X,Y,Z ==> Vertex 2 {m}
    44.2871352,16.4592,4.572,  !- X,Y,Z ==> Vertex 3 {m}
    44.2871352,16.4592,6.096;  !- X,Y,Z ==> Vertex 4 {m}

  FenestrationSurface:Detailed,
    EL4 North Win (G.N1.E2.W6),  !- Name
    Window,                  !- Surface Type
    Exterior Window,         !- Construction Name
    EL4 North Wall (G.N1.E2),!- Building Surface Name
    ,                        !- Outside Boundary Condition Object
    ,                        !- View Factor to Ground
    ,                        !- Frame and Divider Name
    ,                        !- Multiplier
    ,                        !- Number of Vertices
    41.372028,16.4592,6.096,  !- X,Y,Z ==> Vertex 1 {m}
    41.372028,16.4592,4.572,  !- X,Y,Z ==> Vertex 2 {m}
    38.933628,16.4592,4.572,  !- X,Y,Z ==> Vertex 3 {m}
    38.933628,16.4592,6.096;  !- X,Y,Z ==> Vertex 4 {m}

  FenestrationSurface:Detailed,
    EL4 North Win (G.N1.E2.W7),  !- Name
    Window,                  !- Surface Type
    Exterior Window,         !- Construction Name
    EL4 North Wall (G.N1.E2),!- Building Surface Name
    ,                        !- Outside Boundary Condition Object
    ,                        !- View Factor to Ground
    ,                        !- Frame and Divider Name
    ,                        !- Multiplier
    ,                        !- Number of Vertices
    36.018216,16.4592,6.096,  !- X,Y,Z ==> Vertex 1 {m}
    36.018216,16.4592,4.572,  !- X,Y,Z ==> Vertex 2 {m}
    33.579816,16.4592,4.572,  !- X,Y,Z ==> Vertex 3 {m}
    33.579816,16.4592,6.096;  !- X,Y,Z ==> Vertex 4 {m}

  FenestrationSurface:Detailed,
    EL4 North Win (G.N1.E2.W8),  !- Name
    Window,                  !- Surface Type
    Exterior Window,         !- Construction Name
    EL4 North Wall (G.N1.E2),!- Building Surface Name
    ,                        !- Outside Boundary Condition Object
    ,                        !- View Factor to Ground
    ,                        !- Frame and Divider Name
    ,                        !- Multiplier
    ,                        !- Number of Vertices
    30.664404,16.4592,6.096,  !- X,Y,Z ==> Vertex 1 {m}
    30.664404,16.4592,4.572,  !- X,Y,Z ==> Vertex 2 {m}
    28.226004,16.4592,4.572,  !- X,Y,Z ==> Vertex 3 {m}
    28.226004,16.4592,6.096;  !- X,Y,Z ==> Vertex 4 {m}

  FenestrationSurface:Detailed,
    EL4 North Win (G.N1.E2.W9),  !- Name
    Window,                  !- Surface Type
    Exterior Window,         !- Construction Name
    EL4 North Wall (G.N1.E2),!- Building Surface Name
    ,                        !- Outside Boundary Condition Object
    ,                        !- View Factor to Ground
    ,                        !- Frame and Divider Name
    ,                        !- Multiplier
    ,                        !- Number of Vertices
    25.3108968,16.4592,6.096,  !- X,Y,Z ==> Vertex 1 {m}
    25.3108968,16.4592,4.572,  !- X,Y,Z ==> Vertex 2 {m}
    22.8724968,16.4592,4.572,  !- X,Y,Z ==> Vertex 3 {m}
    22.8724968,16.4592,6.096;  !- X,Y,Z ==> Vertex 4 {m}

  FenestrationSurface:Detailed,
    EL4 North Win (G.NNE3.E5.W1),  !- Name
    Window,                  !- Surface Type
    Exterior Window,         !- Construction Name
    EL4 North Wall (G.NNE3.E5),  !- Building Surface Name
    ,                        !- Outside Boundary Condition Object
    ,                        !- View Factor to Ground
    ,                        !- Frame and Divider Name
    ,                        !- Multiplier
    ,                        !- Number of Vertices
    91.534488,16.4592,6.096,  !- X,Y,Z ==> Vertex 1 {m}
    91.534488,16.4592,4.572,  !- X,Y,Z ==> Vertex 2 {m}
    89.096088,16.4592,4.572,  !- X,Y,Z ==> Vertex 3 {m}
    89.096088,16.4592,6.096;  !- X,Y,Z ==> Vertex 4 {m}

  FenestrationSurface:Detailed,
    EL4 North Win (G.NNE3.E5.W2),  !- Name
    Window,                  !- Surface Type
    Exterior Window,         !- Construction Name
    EL4 North Wall (G.NNE3.E5),  !- Building Surface Name
    ,                        !- Outside Boundary Condition Object
    ,                        !- View Factor to Ground
    ,                        !- Frame and Divider Name
    ,                        !- Multiplier
    ,                        !- Number of Vertices
    86.5720392,16.4592,6.096,  !- X,Y,Z ==> Vertex 1 {m}
    86.5720392,16.4592,4.572,  !- X,Y,Z ==> Vertex 2 {m}
    84.1336392,16.4592,4.572,  !- X,Y,Z ==> Vertex 3 {m}
    84.1336392,16.4592,6.096;  !- X,Y,Z ==> Vertex 4 {m}

  FenestrationSurface:Detailed,
    EL4 North Win (G.NNE3.E5.W3),  !- Name
    Window,                  !- Surface Type
    Exterior Window,         !- Construction Name
    EL4 North Wall (G.NNE3.E5),  !- Building Surface Name
    ,                        !- Outside Boundary Condition Object
    ,                        !- View Factor to Ground
    ,                        !- Frame and Divider Name
    ,                        !- Multiplier
    ,                        !- Number of Vertices
    81.6095904,16.4592,6.096,  !- X,Y,Z ==> Vertex 1 {m}
    81.6095904,16.4592,4.572,  !- X,Y,Z ==> Vertex 2 {m}
    79.1711904,16.4592,4.572,  !- X,Y,Z ==> Vertex 3 {m}
    79.1711904,16.4592,6.096;  !- X,Y,Z ==> Vertex 4 {m}

  FenestrationSurface:Detailed,
    EL4 North Win (G.NNE3.E5.W4),  !- Name
    Window,                  !- Surface Type
    Exterior Window,         !- Construction Name
    EL4 North Wall (G.NNE3.E5),  !- Building Surface Name
    ,                        !- Outside Boundary Condition Object
    ,                        !- View Factor to Ground
    ,                        !- Frame and Divider Name
    ,                        !- Multiplier
    ,                        !- Number of Vertices
    76.6471416,16.4592,6.096,  !- X,Y,Z ==> Vertex 1 {m}
    76.6471416,16.4592,4.572,  !- X,Y,Z ==> Vertex 2 {m}
    74.2087416,16.4592,4.572,  !- X,Y,Z ==> Vertex 3 {m}
    74.2087416,16.4592,6.096;  !- X,Y,Z ==> Vertex 4 {m}

  FenestrationSurface:Detailed,
    EL4 North Win (G.NNE3.E5.W5),  !- Name
    Window,                  !- Surface Type
    Exterior Window,         !- Construction Name
    EL4 North Wall (G.NNE3.E5),  !- Building Surface Name
    ,                        !- Outside Boundary Condition Object
    ,                        !- View Factor to Ground
    ,                        !- Frame and Divider Name
    ,                        !- Multiplier
    ,                        !- Number of Vertices
    71.6846928,16.4592,6.096,  !- X,Y,Z ==> Vertex 1 {m}
    71.6846928,16.4592,4.572,  !- X,Y,Z ==> Vertex 2 {m}
    70.859904,16.4592,4.572,  !- X,Y,Z ==> Vertex 3 {m}
    70.859904,16.4592,6.096;  !- X,Y,Z ==> Vertex 4 {m}

  FenestrationSurface:Detailed,
    EL4 North Win (M.N11.E22.W1),  !- Name
    Window,                  !- Surface Type
    Exterior Window,         !- Construction Name
    EL4 North Wall (M.N11.E22),  !- Building Surface Name
    ,                        !- Outside Boundary Condition Object
    ,                        !- View Factor to Ground
    ,                        !- Frame and Divider Name
    ,                        !- Multiplier
    ,                        !- Number of Vertices
    68.1404784,16.4592,8.9916,  !- X,Y,Z ==> Vertex 1 {m}
    68.1404784,16.4592,7.4676,  !- X,Y,Z ==> Vertex 2 {m}
    65.7020784,16.4592,7.4676,  !- X,Y,Z ==> Vertex 3 {m}
    65.7020784,16.4592,8.9916;  !- X,Y,Z ==> Vertex 4 {m}

  FenestrationSurface:Detailed,
    EL4 North Win (M.N11.E22.W10),  !- Name
    Window,                  !- Surface Type
    Exterior Window,         !- Construction Name
    EL4 North Wall (M.N11.E22),  !- Building Surface Name
    ,                        !- Outside Boundary Condition Object
    ,                        !- View Factor to Ground
    ,                        !- Frame and Divider Name
    ,                        !- Multiplier
    ,                        !- Number of Vertices
    19.9570848,16.4592,8.9916,  !- X,Y,Z ==> Vertex 1 {m}
    19.9570848,16.4592,7.4676,  !- X,Y,Z ==> Vertex 2 {m}
    17.5186848,16.4592,7.4676,  !- X,Y,Z ==> Vertex 3 {m}
    17.5186848,16.4592,8.9916;  !- X,Y,Z ==> Vertex 4 {m}

  FenestrationSurface:Detailed,
    EL4 North Win (M.N11.E22.W11),  !- Name
    Window,                  !- Surface Type
    Exterior Window,         !- Construction Name
    EL4 North Wall (M.N11.E22),  !- Building Surface Name
    ,                        !- Outside Boundary Condition Object
    ,                        !- View Factor to Ground
    ,                        !- Frame and Divider Name
    ,                        !- Multiplier
    ,                        !- Number of Vertices
    14.6035776,16.4592,8.9916,  !- X,Y,Z ==> Vertex 1 {m}
    14.6035776,16.4592,7.4676,  !- X,Y,Z ==> Vertex 2 {m}
    12.1651776,16.4592,7.4676,  !- X,Y,Z ==> Vertex 3 {m}
    12.1651776,16.4592,8.9916;  !- X,Y,Z ==> Vertex 4 {m}

  FenestrationSurface:Detailed,
    EL4 North Win (M.N11.E22.W12),  !- Name
    Window,                  !- Surface Type
    Exterior Window,         !- Construction Name
    EL4 North Wall (M.N11.E22),  !- Building Surface Name
    ,                        !- Outside Boundary Condition Object
    ,                        !- View Factor to Ground
    ,                        !- Frame and Divider Name
    ,                        !- Multiplier
    ,                        !- Number of Vertices
    9.2497656,16.4592,8.9916,  !- X,Y,Z ==> Vertex 1 {m}
    9.2497656,16.4592,7.4676,  !- X,Y,Z ==> Vertex 2 {m}
    6.8113656,16.4592,7.4676,  !- X,Y,Z ==> Vertex 3 {m}
    6.8113656,16.4592,8.9916;  !- X,Y,Z ==> Vertex 4 {m}

  FenestrationSurface:Detailed,
    EL4 North Win (M.N11.E22.W13),  !- Name
    Window,                  !- Surface Type
    Exterior Window,         !- Construction Name
    EL4 North Wall (M.N11.E22),  !- Building Surface Name
    ,                        !- Outside Boundary Condition Object
    ,                        !- View Factor to Ground
    ,                        !- Frame and Divider Name
    ,                        !- Multiplier
    ,                        !- Number of Vertices
    3.8959536,16.4592,8.9916,  !- X,Y,Z ==> Vertex 1 {m}
    3.8959536,16.4592,7.4676,  !- X,Y,Z ==> Vertex 2 {m}
    1.4575536,16.4592,7.4676,  !- X,Y,Z ==> Vertex 3 {m}
    1.4575536,16.4592,8.9916;  !- X,Y,Z ==> Vertex 4 {m}

  FenestrationSurface:Detailed,
    EL4 North Win (M.N11.E22.W2),  !- Name
    Window,                  !- Surface Type
    Exterior Window,         !- Construction Name
    EL4 North Wall (M.N11.E22),  !- Building Surface Name
    ,                        !- Outside Boundary Condition Object
    ,                        !- View Factor to Ground
    ,                        !- Frame and Divider Name
    ,                        !- Multiplier
    ,                        !- Number of Vertices
    62.7866664,16.4592,8.9916,  !- X,Y,Z ==> Vertex 1 {m}
    62.7866664,16.4592,7.4676,  !- X,Y,Z ==> Vertex 2 {m}
    60.3482664,16.4592,7.4676,  !- X,Y,Z ==> Vertex 3 {m}
    60.3482664,16.4592,8.9916;  !- X,Y,Z ==> Vertex 4 {m}

  FenestrationSurface:Detailed,
    EL4 North Win (M.N11.E22.W3),  !- Name
    Window,                  !- Surface Type
    Exterior Window,         !- Construction Name
    EL4 North Wall (M.N11.E22),  !- Building Surface Name
    ,                        !- Outside Boundary Condition Object
    ,                        !- View Factor to Ground
    ,                        !- Frame and Divider Name
    ,                        !- Multiplier
    ,                        !- Number of Vertices
    57.4328544,16.4592,8.9916,  !- X,Y,Z ==> Vertex 1 {m}
    57.4328544,16.4592,7.4676,  !- X,Y,Z ==> Vertex 2 {m}
    54.9944544,16.4592,7.4676,  !- X,Y,Z ==> Vertex 3 {m}
    54.9944544,16.4592,8.9916;  !- X,Y,Z ==> Vertex 4 {m}

  FenestrationSurface:Detailed,
    EL4 North Win (M.N11.E22.W4),  !- Name
    Window,                  !- Surface Type
    Exterior Window,         !- Construction Name
    EL4 North Wall (M.N11.E22),  !- Building Surface Name
    ,                        !- Outside Boundary Condition Object
    ,                        !- View Factor to Ground
    ,                        !- Frame and Divider Name
    ,                        !- Multiplier
    ,                        !- Number of Vertices
    52.0793472,16.4592,8.9916,  !- X,Y,Z ==> Vertex 1 {m}
    52.0793472,16.4592,7.4676,  !- X,Y,Z ==> Vertex 2 {m}
    49.6409472,16.4592,7.4676,  !- X,Y,Z ==> Vertex 3 {m}
    49.6409472,16.4592,8.9916;  !- X,Y,Z ==> Vertex 4 {m}

  FenestrationSurface:Detailed,
    EL4 North Win (M.N11.E22.W5),  !- Name
    Window,                  !- Surface Type
    Exterior Window,         !- Construction Name
    EL4 North Wall (M.N11.E22),  !- Building Surface Name
    ,                        !- Outside Boundary Condition Object
    ,                        !- View Factor to Ground
    ,                        !- Frame and Divider Name
    ,                        !- Multiplier
    ,                        !- Number of Vertices
    46.7255352,16.4592,8.9916,  !- X,Y,Z ==> Vertex 1 {m}
    46.7255352,16.4592,7.4676,  !- X,Y,Z ==> Vertex 2 {m}
    44.2871352,16.4592,7.4676,  !- X,Y,Z ==> Vertex 3 {m}
    44.2871352,16.4592,8.9916;  !- X,Y,Z ==> Vertex 4 {m}

  FenestrationSurface:Detailed,
    EL4 North Win (M.N11.E22.W6),  !- Name
    Window,                  !- Surface Type
    Exterior Window,         !- Construction Name
    EL4 North Wall (M.N11.E22),  !- Building Surface Name
    ,                        !- Outside Boundary Condition Object
    ,                        !- View Factor to Ground
    ,                        !- Frame and Divider Name
    ,                        !- Multiplier
    ,                        !- Number of Vertices
    41.372028,16.4592,8.9916,  !- X,Y,Z ==> Vertex 1 {m}
    41.372028,16.4592,7.4676,  !- X,Y,Z ==> Vertex 2 {m}
    38.933628,16.4592,7.4676,  !- X,Y,Z ==> Vertex 3 {m}
    38.933628,16.4592,8.9916;  !- X,Y,Z ==> Vertex 4 {m}

  FenestrationSurface:Detailed,
    EL4 North Win (M.N11.E22.W7),  !- Name
    Window,                  !- Surface Type
    Exterior Window,         !- Construction Name
    EL4 North Wall (M.N11.E22),  !- Building Surface Name
    ,                        !- Outside Boundary Condition Object
    ,                        !- View Factor to Ground
    ,                        !- Frame and Divider Name
    ,                        !- Multiplier
    ,                        !- Number of Vertices
    36.018216,16.4592,8.9916,  !- X,Y,Z ==> Vertex 1 {m}
    36.018216,16.4592,7.4676,  !- X,Y,Z ==> Vertex 2 {m}
    33.579816,16.4592,7.4676,  !- X,Y,Z ==> Vertex 3 {m}
    33.579816,16.4592,8.9916;  !- X,Y,Z ==> Vertex 4 {m}

  FenestrationSurface:Detailed,
    EL4 North Win (M.N11.E22.W8),  !- Name
    Window,                  !- Surface Type
    Exterior Window,         !- Construction Name
    EL4 North Wall (M.N11.E22),  !- Building Surface Name
    ,                        !- Outside Boundary Condition Object
    ,                        !- View Factor to Ground
    ,                        !- Frame and Divider Name
    ,                        !- Multiplier
    ,                        !- Number of Vertices
    30.664404,16.4592,8.9916,  !- X,Y,Z ==> Vertex 1 {m}
    30.664404,16.4592,7.4676,  !- X,Y,Z ==> Vertex 2 {m}
    28.226004,16.4592,7.4676,  !- X,Y,Z ==> Vertex 3 {m}
    28.226004,16.4592,8.9916;  !- X,Y,Z ==> Vertex 4 {m}

  FenestrationSurface:Detailed,
    EL4 North Win (M.N11.E22.W9),  !- Name
    Window,                  !- Surface Type
    Exterior Window,         !- Construction Name
    EL4 North Wall (M.N11.E22),  !- Building Surface Name
    ,                        !- Outside Boundary Condition Object
    ,                        !- View Factor to Ground
    ,                        !- Frame and Divider Name
    ,                        !- Multiplier
    ,                        !- Number of Vertices
    25.3108968,16.4592,8.9916,  !- X,Y,Z ==> Vertex 1 {m}
    25.3108968,16.4592,7.4676,  !- X,Y,Z ==> Vertex 2 {m}
    22.8724968,16.4592,7.4676,  !- X,Y,Z ==> Vertex 3 {m}
    22.8724968,16.4592,8.9916;  !- X,Y,Z ==> Vertex 4 {m}

  FenestrationSurface:Detailed,
    EL4 North Win (M.NNE13.E25.W1),  !- Name
    Window,                  !- Surface Type
    Exterior Window,         !- Construction Name
    EL4 North Wall (M.NNE13.E25),  !- Building Surface Name
    ,                        !- Outside Boundary Condition Object
    ,                        !- View Factor to Ground
    ,                        !- Frame and Divider Name
    ,                        !- Multiplier
    ,                        !- Number of Vertices
    91.534488,16.4592,8.9916,  !- X,Y,Z ==> Vertex 1 {m}
    91.534488,16.4592,7.4676,  !- X,Y,Z ==> Vertex 2 {m}
    89.096088,16.4592,7.4676,  !- X,Y,Z ==> Vertex 3 {m}
    89.096088,16.4592,8.9916;  !- X,Y,Z ==> Vertex 4 {m}

  FenestrationSurface:Detailed,
    EL4 North Win (M.NNE13.E25.W2),  !- Name
    Window,                  !- Surface Type
    Exterior Window,         !- Construction Name
    EL4 North Wall (M.NNE13.E25),  !- Building Surface Name
    ,                        !- Outside Boundary Condition Object
    ,                        !- View Factor to Ground
    ,                        !- Frame and Divider Name
    ,                        !- Multiplier
    ,                        !- Number of Vertices
    86.5720392,16.4592,8.9916,  !- X,Y,Z ==> Vertex 1 {m}
    86.5720392,16.4592,7.4676,  !- X,Y,Z ==> Vertex 2 {m}
    84.1336392,16.4592,7.4676,  !- X,Y,Z ==> Vertex 3 {m}
    84.1336392,16.4592,8.9916;  !- X,Y,Z ==> Vertex 4 {m}

  FenestrationSurface:Detailed,
    EL4 North Win (M.NNE13.E25.W3),  !- Name
    Window,                  !- Surface Type
    Exterior Window,         !- Construction Name
    EL4 North Wall (M.NNE13.E25),  !- Building Surface Name
    ,                        !- Outside Boundary Condition Object
    ,                        !- View Factor to Ground
    ,                        !- Frame and Divider Name
    ,                        !- Multiplier
    ,                        !- Number of Vertices
    81.6095904,16.4592,8.9916,  !- X,Y,Z ==> Vertex 1 {m}
    81.6095904,16.4592,7.4676,  !- X,Y,Z ==> Vertex 2 {m}
    79.1711904,16.4592,7.4676,  !- X,Y,Z ==> Vertex 3 {m}
    79.1711904,16.4592,8.9916;  !- X,Y,Z ==> Vertex 4 {m}

  FenestrationSurface:Detailed,
    EL4 North Win (M.NNE13.E25.W4),  !- Name
    Window,                  !- Surface Type
    Exterior Window,         !- Construction Name
    EL4 North Wall (M.NNE13.E25),  !- Building Surface Name
    ,                        !- Outside Boundary Condition Object
    ,                        !- View Factor to Ground
    ,                        !- Frame and Divider Name
    ,                        !- Multiplier
    ,                        !- Number of Vertices
    76.6471416,16.4592,8.9916,  !- X,Y,Z ==> Vertex 1 {m}
    76.6471416,16.4592,7.4676,  !- X,Y,Z ==> Vertex 2 {m}
    74.2087416,16.4592,7.4676,  !- X,Y,Z ==> Vertex 3 {m}
    74.2087416,16.4592,8.9916;  !- X,Y,Z ==> Vertex 4 {m}

  FenestrationSurface:Detailed,
    EL4 North Win (M.NNE13.E25.W5),  !- Name
    Window,                  !- Surface Type
    Exterior Window,         !- Construction Name
    EL4 North Wall (M.NNE13.E25),  !- Building Surface Name
    ,                        !- Outside Boundary Condition Object
    ,                        !- View Factor to Ground
    ,                        !- Frame and Divider Name
    ,                        !- Multiplier
    ,                        !- Number of Vertices
    71.6846928,16.4592,8.9916,  !- X,Y,Z ==> Vertex 1 {m}
    71.6846928,16.4592,7.4676,  !- X,Y,Z ==> Vertex 2 {m}
    70.859904,16.4592,7.4676,  !- X,Y,Z ==> Vertex 3 {m}
    70.859904,16.4592,8.9916;  !- X,Y,Z ==> Vertex 4 {m}

  FenestrationSurface:Detailed,
    EL4 North Win (T.N21.E42.W1),  !- Name
    Window,                  !- Surface Type
    Exterior Window,         !- Construction Name
    EL4 North Wall (T.N21.E42),  !- Building Surface Name
    ,                        !- Outside Boundary Condition Object
    ,                        !- View Factor to Ground
    ,                        !- Frame and Divider Name
    ,                        !- Multiplier
    ,                        !- Number of Vertices
    68.1404784,16.4592,11.8872,  !- X,Y,Z ==> Vertex 1 {m}
    68.1404784,16.4592,10.3632,  !- X,Y,Z ==> Vertex 2 {m}
    65.7020784,16.4592,10.3632,  !- X,Y,Z ==> Vertex 3 {m}
    65.7020784,16.4592,11.8872;  !- X,Y,Z ==> Vertex 4 {m}

  FenestrationSurface:Detailed,
    EL4 North Win (T.N21.E42.W10),  !- Name
    Window,                  !- Surface Type
    Exterior Window,         !- Construction Name
    EL4 North Wall (T.N21.E42),  !- Building Surface Name
    ,                        !- Outside Boundary Condition Object
    ,                        !- View Factor to Ground
    ,                        !- Frame and Divider Name
    ,                        !- Multiplier
    ,                        !- Number of Vertices
    19.9570848,16.4592,11.8872,  !- X,Y,Z ==> Vertex 1 {m}
    19.9570848,16.4592,10.3632,  !- X,Y,Z ==> Vertex 2 {m}
    17.5186848,16.4592,10.3632,  !- X,Y,Z ==> Vertex 3 {m}
    17.5186848,16.4592,11.8872;  !- X,Y,Z ==> Vertex 4 {m}

  FenestrationSurface:Detailed,
    EL4 North Win (T.N21.E42.W11),  !- Name
    Window,                  !- Surface Type
    Exterior Window,         !- Construction Name
    EL4 North Wall (T.N21.E42),  !- Building Surface Name
    ,                        !- Outside Boundary Condition Object
    ,                        !- View Factor to Ground
    ,                        !- Frame and Divider Name
    ,                        !- Multiplier
    ,                        !- Number of Vertices
    14.6035776,16.4592,11.8872,  !- X,Y,Z ==> Vertex 1 {m}
    14.6035776,16.4592,10.3632,  !- X,Y,Z ==> Vertex 2 {m}
    12.1651776,16.4592,10.3632,  !- X,Y,Z ==> Vertex 3 {m}
    12.1651776,16.4592,11.8872;  !- X,Y,Z ==> Vertex 4 {m}

  FenestrationSurface:Detailed,
    EL4 North Win (T.N21.E42.W12),  !- Name
    Window,                  !- Surface Type
    Exterior Window,         !- Construction Name
    EL4 North Wall (T.N21.E42),  !- Building Surface Name
    ,                        !- Outside Boundary Condition Object
    ,                        !- View Factor to Ground
    ,                        !- Frame and Divider Name
    ,                        !- Multiplier
    ,                        !- Number of Vertices
    9.2497656,16.4592,11.8872,  !- X,Y,Z ==> Vertex 1 {m}
    9.2497656,16.4592,10.3632,  !- X,Y,Z ==> Vertex 2 {m}
    6.8113656,16.4592,10.3632,  !- X,Y,Z ==> Vertex 3 {m}
    6.8113656,16.4592,11.8872;  !- X,Y,Z ==> Vertex 4 {m}

  FenestrationSurface:Detailed,
    EL4 North Win (T.N21.E42.W13),  !- Name
    Window,                  !- Surface Type
    Exterior Window,         !- Construction Name
    EL4 North Wall (T.N21.E42),  !- Building Surface Name
    ,                        !- Outside Boundary Condition Object
    ,                        !- View Factor to Ground
    ,                        !- Frame and Divider Name
    ,                        !- Multiplier
    ,                        !- Number of Vertices
    3.8959536,16.4592,11.8872,  !- X,Y,Z ==> Vertex 1 {m}
    3.8959536,16.4592,10.3632,  !- X,Y,Z ==> Vertex 2 {m}
    1.4575536,16.4592,10.3632,  !- X,Y,Z ==> Vertex 3 {m}
    1.4575536,16.4592,11.8872;  !- X,Y,Z ==> Vertex 4 {m}

  FenestrationSurface:Detailed,
    EL4 North Win (T.N21.E42.W2),  !- Name
    Window,                  !- Surface Type
    Exterior Window,         !- Construction Name
    EL4 North Wall (T.N21.E42),  !- Building Surface Name
    ,                        !- Outside Boundary Condition Object
    ,                        !- View Factor to Ground
    ,                        !- Frame and Divider Name
    ,                        !- Multiplier
    ,                        !- Number of Vertices
    62.7866664,16.4592,11.8872,  !- X,Y,Z ==> Vertex 1 {m}
    62.7866664,16.4592,10.3632,  !- X,Y,Z ==> Vertex 2 {m}
    60.3482664,16.4592,10.3632,  !- X,Y,Z ==> Vertex 3 {m}
    60.3482664,16.4592,11.8872;  !- X,Y,Z ==> Vertex 4 {m}

  FenestrationSurface:Detailed,
    EL4 North Win (T.N21.E42.W3),  !- Name
    Window,                  !- Surface Type
    Exterior Window,         !- Construction Name
    EL4 North Wall (T.N21.E42),  !- Building Surface Name
    ,                        !- Outside Boundary Condition Object
    ,                        !- View Factor to Ground
    ,                        !- Frame and Divider Name
    ,                        !- Multiplier
    ,                        !- Number of Vertices
    57.4328544,16.4592,11.8872,  !- X,Y,Z ==> Vertex 1 {m}
    57.4328544,16.4592,10.3632,  !- X,Y,Z ==> Vertex 2 {m}
    54.9944544,16.4592,10.3632,  !- X,Y,Z ==> Vertex 3 {m}
    54.9944544,16.4592,11.8872;  !- X,Y,Z ==> Vertex 4 {m}

  FenestrationSurface:Detailed,
    EL4 North Win (T.N21.E42.W4),  !- Name
    Window,                  !- Surface Type
    Exterior Window,         !- Construction Name
    EL4 North Wall (T.N21.E42),  !- Building Surface Name
    ,                        !- Outside Boundary Condition Object
    ,                        !- View Factor to Ground
    ,                        !- Frame and Divider Name
    ,                        !- Multiplier
    ,                        !- Number of Vertices
    52.0793472,16.4592,11.8872,  !- X,Y,Z ==> Vertex 1 {m}
    52.0793472,16.4592,10.3632,  !- X,Y,Z ==> Vertex 2 {m}
    49.6409472,16.4592,10.3632,  !- X,Y,Z ==> Vertex 3 {m}
    49.6409472,16.4592,11.8872;  !- X,Y,Z ==> Vertex 4 {m}

  FenestrationSurface:Detailed,
    EL4 North Win (T.N21.E42.W5),  !- Name
    Window,                  !- Surface Type
    Exterior Window,         !- Construction Name
    EL4 North Wall (T.N21.E42),  !- Building Surface Name
    ,                        !- Outside Boundary Condition Object
    ,                        !- View Factor to Ground
    ,                        !- Frame and Divider Name
    ,                        !- Multiplier
    ,                        !- Number of Vertices
    46.7255352,16.4592,11.8872,  !- X,Y,Z ==> Vertex 1 {m}
    46.7255352,16.4592,10.3632,  !- X,Y,Z ==> Vertex 2 {m}
    44.2871352,16.4592,10.3632,  !- X,Y,Z ==> Vertex 3 {m}
    44.2871352,16.4592,11.8872;  !- X,Y,Z ==> Vertex 4 {m}

  FenestrationSurface:Detailed,
    EL4 North Win (T.N21.E42.W6),  !- Name
    Window,                  !- Surface Type
    Exterior Window,         !- Construction Name
    EL4 North Wall (T.N21.E42),  !- Building Surface Name
    ,                        !- Outside Boundary Condition Object
    ,                        !- View Factor to Ground
    ,                        !- Frame and Divider Name
    ,                        !- Multiplier
    ,                        !- Number of Vertices
    41.372028,16.4592,11.8872,  !- X,Y,Z ==> Vertex 1 {m}
    41.372028,16.4592,10.3632,  !- X,Y,Z ==> Vertex 2 {m}
    38.933628,16.4592,10.3632,  !- X,Y,Z ==> Vertex 3 {m}
    38.933628,16.4592,11.8872;  !- X,Y,Z ==> Vertex 4 {m}

  FenestrationSurface:Detailed,
    EL4 North Win (T.N21.E42.W7),  !- Name
    Window,                  !- Surface Type
    Exterior Window,         !- Construction Name
    EL4 North Wall (T.N21.E42),  !- Building Surface Name
    ,                        !- Outside Boundary Condition Object
    ,                        !- View Factor to Ground
    ,                        !- Frame and Divider Name
    ,                        !- Multiplier
    ,                        !- Number of Vertices
    36.018216,16.4592,11.8872,  !- X,Y,Z ==> Vertex 1 {m}
    36.018216,16.4592,10.3632,  !- X,Y,Z ==> Vertex 2 {m}
    33.579816,16.4592,10.3632,  !- X,Y,Z ==> Vertex 3 {m}
    33.579816,16.4592,11.8872;  !- X,Y,Z ==> Vertex 4 {m}

  FenestrationSurface:Detailed,
    EL4 North Win (T.N21.E42.W8),  !- Name
    Window,                  !- Surface Type
    Exterior Window,         !- Construction Name
    EL4 North Wall (T.N21.E42),  !- Building Surface Name
    ,                        !- Outside Boundary Condition Object
    ,                        !- View Factor to Ground
    ,                        !- Frame and Divider Name
    ,                        !- Multiplier
    ,                        !- Number of Vertices
    30.664404,16.4592,11.8872,  !- X,Y,Z ==> Vertex 1 {m}
    30.664404,16.4592,10.3632,  !- X,Y,Z ==> Vertex 2 {m}
    28.226004,16.4592,10.3632,  !- X,Y,Z ==> Vertex 3 {m}
    28.226004,16.4592,11.8872;  !- X,Y,Z ==> Vertex 4 {m}

  FenestrationSurface:Detailed,
    EL4 North Win (T.N21.E42.W9),  !- Name
    Window,                  !- Surface Type
    Exterior Window,         !- Construction Name
    EL4 North Wall (T.N21.E42),  !- Building Surface Name
    ,                        !- Outside Boundary Condition Object
    ,                        !- View Factor to Ground
    ,                        !- Frame and Divider Name
    ,                        !- Multiplier
    ,                        !- Number of Vertices
    25.3108968,16.4592,11.8872,  !- X,Y,Z ==> Vertex 1 {m}
    25.3108968,16.4592,10.3632,  !- X,Y,Z ==> Vertex 2 {m}
    22.8724968,16.4592,10.3632,  !- X,Y,Z ==> Vertex 3 {m}
    22.8724968,16.4592,11.8872;  !- X,Y,Z ==> Vertex 4 {m}

  FenestrationSurface:Detailed,
    EL4 North Win (T.NNE23.E45.W1),  !- Name
    Window,                  !- Surface Type
    Exterior Window,         !- Construction Name
    EL4 North Wall (T.NNE23.E45),  !- Building Surface Name
    ,                        !- Outside Boundary Condition Object
    ,                        !- View Factor to Ground
    ,                        !- Frame and Divider Name
    ,                        !- Multiplier
    ,                        !- Number of Vertices
    91.534488,16.4592,11.8872,  !- X,Y,Z ==> Vertex 1 {m}
    91.534488,16.4592,10.3632,  !- X,Y,Z ==> Vertex 2 {m}
    89.096088,16.4592,10.3632,  !- X,Y,Z ==> Vertex 3 {m}
    89.096088,16.4592,11.8872;  !- X,Y,Z ==> Vertex 4 {m}

  FenestrationSurface:Detailed,
    EL4 North Win (T.NNE23.E45.W2),  !- Name
    Window,                  !- Surface Type
    Exterior Window,         !- Construction Name
    EL4 North Wall (T.NNE23.E45),  !- Building Surface Name
    ,                        !- Outside Boundary Condition Object
    ,                        !- View Factor to Ground
    ,                        !- Frame and Divider Name
    ,                        !- Multiplier
    ,                        !- Number of Vertices
    86.5720392,16.4592,11.8872,  !- X,Y,Z ==> Vertex 1 {m}
    86.5720392,16.4592,10.3632,  !- X,Y,Z ==> Vertex 2 {m}
    84.1336392,16.4592,10.3632,  !- X,Y,Z ==> Vertex 3 {m}
    84.1336392,16.4592,11.8872;  !- X,Y,Z ==> Vertex 4 {m}

  FenestrationSurface:Detailed,
    EL4 North Win (T.NNE23.E45.W3),  !- Name
    Window,                  !- Surface Type
    Exterior Window,         !- Construction Name
    EL4 North Wall (T.NNE23.E45),  !- Building Surface Name
    ,                        !- Outside Boundary Condition Object
    ,                        !- View Factor to Ground
    ,                        !- Frame and Divider Name
    ,                        !- Multiplier
    ,                        !- Number of Vertices
    81.6095904,16.4592,11.8872,  !- X,Y,Z ==> Vertex 1 {m}
    81.6095904,16.4592,10.3632,  !- X,Y,Z ==> Vertex 2 {m}
    79.1711904,16.4592,10.3632,  !- X,Y,Z ==> Vertex 3 {m}
    79.1711904,16.4592,11.8872;  !- X,Y,Z ==> Vertex 4 {m}

  FenestrationSurface:Detailed,
    EL4 North Win (T.NNE23.E45.W4),  !- Name
    Window,                  !- Surface Type
    Exterior Window,         !- Construction Name
    EL4 North Wall (T.NNE23.E45),  !- Building Surface Name
    ,                        !- Outside Boundary Condition Object
    ,                        !- View Factor to Ground
    ,                        !- Frame and Divider Name
    ,                        !- Multiplier
    ,                        !- Number of Vertices
    76.6471416,16.4592,11.8872,  !- X,Y,Z ==> Vertex 1 {m}
    76.6471416,16.4592,10.3632,  !- X,Y,Z ==> Vertex 2 {m}
    74.2087416,16.4592,10.3632,  !- X,Y,Z ==> Vertex 3 {m}
    74.2087416,16.4592,11.8872;  !- X,Y,Z ==> Vertex 4 {m}

  FenestrationSurface:Detailed,
    EL4 North Win (T.NNE23.E45.W5),  !- Name
    Window,                  !- Surface Type
    Exterior Window,         !- Construction Name
    EL4 North Wall (T.NNE23.E45),  !- Building Surface Name
    ,                        !- Outside Boundary Condition Object
    ,                        !- View Factor to Ground
    ,                        !- Frame and Divider Name
    ,                        !- Multiplier
    ,                        !- Number of Vertices
    71.6846928,16.4592,11.8872,  !- X,Y,Z ==> Vertex 1 {m}
    71.6846928,16.4592,10.3632,  !- X,Y,Z ==> Vertex 2 {m}
    70.859904,16.4592,10.3632,  !- X,Y,Z ==> Vertex 3 {m}
    70.859904,16.4592,11.8872;  !- X,Y,Z ==> Vertex 4 {m}

  FenestrationSurface:Detailed,
    EL4 South Win (G.S4.E8.W1),  !- Name
    Window,                  !- Surface Type
    Exterior Window,         !- Construction Name
    EL4 South Wall (G.S4.E8),!- Building Surface Name
    ,                        !- Outside Boundary Condition Object
    ,                        !- View Factor to Ground
    ,                        !- Frame and Divider Name
    ,                        !- Multiplier
    ,                        !- Number of Vertices
    24.65597304,-3.45682824e-07,6.096,  !- X,Y,Z ==> Vertex 1 {m}
    24.65597304,-3.45682824e-07,4.572,  !- X,Y,Z ==> Vertex 2 {m}
    27.09437304,-3.45682824e-07,4.572,  !- X,Y,Z ==> Vertex 3 {m}
    27.09437304,-3.45682824e-07,6.096;  !- X,Y,Z ==> Vertex 4 {m}

  FenestrationSurface:Detailed,
    EL4 South Win (G.S4.E8.W10),  !- Name
    Window,                  !- Surface Type
    Exterior Window,         !- Construction Name
    EL4 South Wall (G.S4.E8),!- Building Surface Name
    ,                        !- Outside Boundary Condition Object
    ,                        !- View Factor to Ground
    ,                        !- Frame and Divider Name
    ,                        !- Multiplier
    ,                        !- Number of Vertices
    72.8392752,-3.45682824e-07,6.096,  !- X,Y,Z ==> Vertex 1 {m}
    72.8392752,-3.45682824e-07,4.572,  !- X,Y,Z ==> Vertex 2 {m}
    75.2776752,-3.45682824e-07,4.572,  !- X,Y,Z ==> Vertex 3 {m}
    75.2776752,-3.45682824e-07,6.096;  !- X,Y,Z ==> Vertex 4 {m}

  FenestrationSurface:Detailed,
    EL4 South Win (G.S4.E8.W11),  !- Name
    Window,                  !- Surface Type
    Exterior Window,         !- Construction Name
    EL4 South Wall (G.S4.E8),!- Building Surface Name
    ,                        !- Outside Boundary Condition Object
    ,                        !- View Factor to Ground
    ,                        !- Frame and Divider Name
    ,                        !- Multiplier
    ,                        !- Number of Vertices
    78.1927824,-3.45682824e-07,6.096,  !- X,Y,Z ==> Vertex 1 {m}
    78.1927824,-3.45682824e-07,4.572,  !- X,Y,Z ==> Vertex 2 {m}
    80.6311824,-3.45682824e-07,4.572,  !- X,Y,Z ==> Vertex 3 {m}
    80.6311824,-3.45682824e-07,6.096;  !- X,Y,Z ==> Vertex 4 {m}

  FenestrationSurface:Detailed,
    EL4 South Win (G.S4.E8.W12),  !- Name
    Window,                  !- Surface Type
    Exterior Window,         !- Construction Name
    EL4 South Wall (G.S4.E8),!- Building Surface Name
    ,                        !- Outside Boundary Condition Object
    ,                        !- View Factor to Ground
    ,                        !- Frame and Divider Name
    ,                        !- Multiplier
    ,                        !- Number of Vertices
    83.5465944,-3.45682824e-07,6.096,  !- X,Y,Z ==> Vertex 1 {m}
    83.5465944,-3.45682824e-07,4.572,  !- X,Y,Z ==> Vertex 2 {m}
    85.9849944,-3.45682824e-07,4.572,  !- X,Y,Z ==> Vertex 3 {m}
    85.9849944,-3.45682824e-07,6.096;  !- X,Y,Z ==> Vertex 4 {m}

  FenestrationSurface:Detailed,
    EL4 South Win (G.S4.E8.W13),  !- Name
    Window,                  !- Surface Type
    Exterior Window,         !- Construction Name
    EL4 South Wall (G.S4.E8),!- Building Surface Name
    ,                        !- Outside Boundary Condition Object
    ,                        !- View Factor to Ground
    ,                        !- Frame and Divider Name
    ,                        !- Multiplier
    ,                        !- Number of Vertices
    88.9004064,-3.45682824e-07,6.096,  !- X,Y,Z ==> Vertex 1 {m}
    88.9004064,-3.45682824e-07,4.572,  !- X,Y,Z ==> Vertex 2 {m}
    91.3388064,-3.45682824e-07,4.572,  !- X,Y,Z ==> Vertex 3 {m}
    91.3388064,-3.45682824e-07,6.096;  !- X,Y,Z ==> Vertex 4 {m}

  FenestrationSurface:Detailed,
    EL4 South Win (G.S4.E8.W2),  !- Name
    Window,                  !- Surface Type
    Exterior Window,         !- Construction Name
    EL4 South Wall (G.S4.E8),!- Building Surface Name
    ,                        !- Outside Boundary Condition Object
    ,                        !- View Factor to Ground
    ,                        !- Frame and Divider Name
    ,                        !- Multiplier
    ,                        !- Number of Vertices
    30.00966312,-3.45682824e-07,6.096,  !- X,Y,Z ==> Vertex 1 {m}
    30.00966312,-3.45682824e-07,4.572,  !- X,Y,Z ==> Vertex 2 {m}
    32.4480936,-3.45682824e-07,4.572,  !- X,Y,Z ==> Vertex 3 {m}
    32.4480936,-3.45682824e-07,6.096;  !- X,Y,Z ==> Vertex 4 {m}

  FenestrationSurface:Detailed,
    EL4 South Win (G.S4.E8.W3),  !- Name
    Window,                  !- Surface Type
    Exterior Window,         !- Construction Name
    EL4 South Wall (G.S4.E8),!- Building Surface Name
    ,                        !- Outside Boundary Condition Object
    ,                        !- View Factor to Ground
    ,                        !- Frame and Divider Name
    ,                        !- Multiplier
    ,                        !- Number of Vertices
    35.3632008,-3.45682824e-07,6.096,  !- X,Y,Z ==> Vertex 1 {m}
    35.3632008,-3.45682824e-07,4.572,  !- X,Y,Z ==> Vertex 2 {m}
    37.8016008,-3.45682824e-07,4.572,  !- X,Y,Z ==> Vertex 3 {m}
    37.8016008,-3.45682824e-07,6.096;  !- X,Y,Z ==> Vertex 4 {m}

  FenestrationSurface:Detailed,
    EL4 South Win (G.S4.E8.W4),  !- Name
    Window,                  !- Surface Type
    Exterior Window,         !- Construction Name
    EL4 South Wall (G.S4.E8),!- Building Surface Name
    ,                        !- Outside Boundary Condition Object
    ,                        !- View Factor to Ground
    ,                        !- Frame and Divider Name
    ,                        !- Multiplier
    ,                        !- Number of Vertices
    40.7170128,-3.45682824e-07,6.096,  !- X,Y,Z ==> Vertex 1 {m}
    40.7170128,-3.45682824e-07,4.572,  !- X,Y,Z ==> Vertex 2 {m}
    43.1554128,-3.45682824e-07,4.572,  !- X,Y,Z ==> Vertex 3 {m}
    43.1554128,-3.45682824e-07,6.096;  !- X,Y,Z ==> Vertex 4 {m}

  FenestrationSurface:Detailed,
    EL4 South Win (G.S4.E8.W5),  !- Name
    Window,                  !- Surface Type
    Exterior Window,         !- Construction Name
    EL4 South Wall (G.S4.E8),!- Building Surface Name
    ,                        !- Outside Boundary Condition Object
    ,                        !- View Factor to Ground
    ,                        !- Frame and Divider Name
    ,                        !- Multiplier
    ,                        !- Number of Vertices
    46.0708248,-3.45682824e-07,6.096,  !- X,Y,Z ==> Vertex 1 {m}
    46.0708248,-3.45682824e-07,4.572,  !- X,Y,Z ==> Vertex 2 {m}
    48.5092248,-3.45682824e-07,4.572,  !- X,Y,Z ==> Vertex 3 {m}
    48.5092248,-3.45682824e-07,6.096;  !- X,Y,Z ==> Vertex 4 {m}

  FenestrationSurface:Detailed,
    EL4 South Win (G.S4.E8.W6),  !- Name
    Window,                  !- Surface Type
    Exterior Window,         !- Construction Name
    EL4 South Wall (G.S4.E8),!- Building Surface Name
    ,                        !- Outside Boundary Condition Object
    ,                        !- View Factor to Ground
    ,                        !- Frame and Divider Name
    ,                        !- Multiplier
    ,                        !- Number of Vertices
    51.424332,-3.45682824e-07,6.096,  !- X,Y,Z ==> Vertex 1 {m}
    51.424332,-3.45682824e-07,4.572,  !- X,Y,Z ==> Vertex 2 {m}
    53.862732,-3.45682824e-07,4.572,  !- X,Y,Z ==> Vertex 3 {m}
    53.862732,-3.45682824e-07,6.096;  !- X,Y,Z ==> Vertex 4 {m}

  FenestrationSurface:Detailed,
    EL4 South Win (G.S4.E8.W7),  !- Name
    Window,                  !- Surface Type
    Exterior Window,         !- Construction Name
    EL4 South Wall (G.S4.E8),!- Building Surface Name
    ,                        !- Outside Boundary Condition Object
    ,                        !- View Factor to Ground
    ,                        !- Frame and Divider Name
    ,                        !- Multiplier
    ,                        !- Number of Vertices
    56.778144,-3.45682824e-07,6.096,  !- X,Y,Z ==> Vertex 1 {m}
    56.778144,-3.45682824e-07,4.572,  !- X,Y,Z ==> Vertex 2 {m}
    59.216544,-3.45682824e-07,4.572,  !- X,Y,Z ==> Vertex 3 {m}
    59.216544,-3.45682824e-07,6.096;  !- X,Y,Z ==> Vertex 4 {m}

  FenestrationSurface:Detailed,
    EL4 South Win (G.S4.E8.W8),  !- Name
    Window,                  !- Surface Type
    Exterior Window,         !- Construction Name
    EL4 South Wall (G.S4.E8),!- Building Surface Name
    ,                        !- Outside Boundary Condition Object
    ,                        !- View Factor to Ground
    ,                        !- Frame and Divider Name
    ,                        !- Multiplier
    ,                        !- Number of Vertices
    62.131956,-3.45682824e-07,6.096,  !- X,Y,Z ==> Vertex 1 {m}
    62.131956,-3.45682824e-07,4.572,  !- X,Y,Z ==> Vertex 2 {m}
    64.570356,-3.45682824e-07,4.572,  !- X,Y,Z ==> Vertex 3 {m}
    64.570356,-3.45682824e-07,6.096;  !- X,Y,Z ==> Vertex 4 {m}

  FenestrationSurface:Detailed,
    EL4 South Win (G.S4.E8.W9),  !- Name
    Window,                  !- Surface Type
    Exterior Window,         !- Construction Name
    EL4 South Wall (G.S4.E8),!- Building Surface Name
    ,                        !- Outside Boundary Condition Object
    ,                        !- View Factor to Ground
    ,                        !- Frame and Divider Name
    ,                        !- Multiplier
    ,                        !- Number of Vertices
    67.4854632,-3.45682824e-07,6.096,  !- X,Y,Z ==> Vertex 1 {m}
    67.4854632,-3.45682824e-07,4.572,  !- X,Y,Z ==> Vertex 2 {m}
    69.9238632,-3.45682824e-07,4.572,  !- X,Y,Z ==> Vertex 3 {m}
    69.9238632,-3.45682824e-07,6.096;  !- X,Y,Z ==> Vertex 4 {m}

  FenestrationSurface:Detailed,
    EL4 South Win (G.SSW2.E3.W1),  !- Name
    Window,                  !- Surface Type
    Exterior Window,         !- Construction Name
    EL4 South Wall (G.SSW2.E3),  !- Building Surface Name
    ,                        !- Outside Boundary Condition Object
    ,                        !- View Factor to Ground
    ,                        !- Frame and Divider Name
    ,                        !- Multiplier
    ,                        !- Number of Vertices
    1.261987824,-3.45682824e-07,6.096,  !- X,Y,Z ==> Vertex 1 {m}
    1.261987824,-3.45682824e-07,4.572,  !- X,Y,Z ==> Vertex 2 {m}
    3.70039392,-3.45682824e-07,4.572,  !- X,Y,Z ==> Vertex 3 {m}
    3.70039392,-3.45682824e-07,6.096;  !- X,Y,Z ==> Vertex 4 {m}

  FenestrationSurface:Detailed,
    EL4 South Win (G.SSW2.E3.W2),  !- Name
    Window,                  !- Surface Type
    Exterior Window,         !- Construction Name
    EL4 South Wall (G.SSW2.E3),  !- Building Surface Name
    ,                        !- Outside Boundary Condition Object
    ,                        !- View Factor to Ground
    ,                        !- Frame and Divider Name
    ,                        !- Multiplier
    ,                        !- Number of Vertices
    6.22438176,-3.45682824e-07,6.096,  !- X,Y,Z ==> Vertex 1 {m}
    6.22438176,-3.45682824e-07,4.572,  !- X,Y,Z ==> Vertex 2 {m}
    8.66278176,-3.45682824e-07,4.572,  !- X,Y,Z ==> Vertex 3 {m}
    8.66278176,-3.45682824e-07,6.096;  !- X,Y,Z ==> Vertex 4 {m}

  FenestrationSurface:Detailed,
    EL4 South Win (G.SSW2.E3.W3),  !- Name
    Window,                  !- Surface Type
    Exterior Window,         !- Construction Name
    EL4 South Wall (G.SSW2.E3),  !- Building Surface Name
    ,                        !- Outside Boundary Condition Object
    ,                        !- View Factor to Ground
    ,                        !- Frame and Divider Name
    ,                        !- Multiplier
    ,                        !- Number of Vertices
    11.18673912,-3.45682824e-07,6.096,  !- X,Y,Z ==> Vertex 1 {m}
    11.18673912,-3.45682824e-07,4.572,  !- X,Y,Z ==> Vertex 2 {m}
    13.62513912,-3.45682824e-07,4.572,  !- X,Y,Z ==> Vertex 3 {m}
    13.62513912,-3.45682824e-07,6.096;  !- X,Y,Z ==> Vertex 4 {m}

  FenestrationSurface:Detailed,
    EL4 South Win (G.SSW2.E3.W4),  !- Name
    Window,                  !- Surface Type
    Exterior Window,         !- Construction Name
    EL4 South Wall (G.SSW2.E3),  !- Building Surface Name
    ,                        !- Outside Boundary Condition Object
    ,                        !- View Factor to Ground
    ,                        !- Frame and Divider Name
    ,                        !- Multiplier
    ,                        !- Number of Vertices
    16.14912696,-3.45682824e-07,6.096,  !- X,Y,Z ==> Vertex 1 {m}
    16.14912696,-3.45682824e-07,4.572,  !- X,Y,Z ==> Vertex 2 {m}
    18.58752696,-3.45682824e-07,4.572,  !- X,Y,Z ==> Vertex 3 {m}
    18.58752696,-3.45682824e-07,6.096;  !- X,Y,Z ==> Vertex 4 {m}

  FenestrationSurface:Detailed,
    EL4 South Win (G.SSW2.E3.W5),  !- Name
    Window,                  !- Surface Type
    Exterior Window,         !- Construction Name
    EL4 South Wall (G.SSW2.E3),  !- Building Surface Name
    ,                        !- Outside Boundary Condition Object
    ,                        !- View Factor to Ground
    ,                        !- Frame and Divider Name
    ,                        !- Multiplier
    ,                        !- Number of Vertices
    21.1115148,-3.45682824e-07,6.096,  !- X,Y,Z ==> Vertex 1 {m}
    21.1115148,-3.45682824e-07,4.572,  !- X,Y,Z ==> Vertex 2 {m}
    21.93636456,-3.45682824e-07,4.572,  !- X,Y,Z ==> Vertex 3 {m}
    21.93636456,-3.45682824e-07,6.096;  !- X,Y,Z ==> Vertex 4 {m}

  FenestrationSurface:Detailed,
    EL4 South Win (M.S14.E28.W1),  !- Name
    Window,                  !- Surface Type
    Exterior Window,         !- Construction Name
    EL4 South Wall (M.S14.E28),  !- Building Surface Name
    ,                        !- Outside Boundary Condition Object
    ,                        !- View Factor to Ground
    ,                        !- Frame and Divider Name
    ,                        !- Multiplier
    ,                        !- Number of Vertices
    24.65597304,-3.45682824e-07,8.9916,  !- X,Y,Z ==> Vertex 1 {m}
    24.65597304,-3.45682824e-07,7.4676,  !- X,Y,Z ==> Vertex 2 {m}
    27.09437304,-3.45682824e-07,7.4676,  !- X,Y,Z ==> Vertex 3 {m}
    27.09437304,-3.45682824e-07,8.9916;  !- X,Y,Z ==> Vertex 4 {m}

  FenestrationSurface:Detailed,
    EL4 South Win (M.S14.E28.W10),  !- Name
    Window,                  !- Surface Type
    Exterior Window,         !- Construction Name
    EL4 South Wall (M.S14.E28),  !- Building Surface Name
    ,                        !- Outside Boundary Condition Object
    ,                        !- View Factor to Ground
    ,                        !- Frame and Divider Name
    ,                        !- Multiplier
    ,                        !- Number of Vertices
    72.8392752,-3.45682824e-07,8.9916,  !- X,Y,Z ==> Vertex 1 {m}
    72.8392752,-3.45682824e-07,7.4676,  !- X,Y,Z ==> Vertex 2 {m}
    75.2776752,-3.45682824e-07,7.4676,  !- X,Y,Z ==> Vertex 3 {m}
    75.2776752,-3.45682824e-07,8.9916;  !- X,Y,Z ==> Vertex 4 {m}

  FenestrationSurface:Detailed,
    EL4 South Win (M.S14.E28.W11),  !- Name
    Window,                  !- Surface Type
    Exterior Window,         !- Construction Name
    EL4 South Wall (M.S14.E28),  !- Building Surface Name
    ,                        !- Outside Boundary Condition Object
    ,                        !- View Factor to Ground
    ,                        !- Frame and Divider Name
    ,                        !- Multiplier
    ,                        !- Number of Vertices
    78.1927824,-3.45682824e-07,8.9916,  !- X,Y,Z ==> Vertex 1 {m}
    78.1927824,-3.45682824e-07,7.4676,  !- X,Y,Z ==> Vertex 2 {m}
    80.6311824,-3.45682824e-07,7.4676,  !- X,Y,Z ==> Vertex 3 {m}
    80.6311824,-3.45682824e-07,8.9916;  !- X,Y,Z ==> Vertex 4 {m}

  FenestrationSurface:Detailed,
    EL4 South Win (M.S14.E28.W12),  !- Name
    Window,                  !- Surface Type
    Exterior Window,         !- Construction Name
    EL4 South Wall (M.S14.E28),  !- Building Surface Name
    ,                        !- Outside Boundary Condition Object
    ,                        !- View Factor to Ground
    ,                        !- Frame and Divider Name
    ,                        !- Multiplier
    ,                        !- Number of Vertices
    83.5465944,-3.45682824e-07,8.9916,  !- X,Y,Z ==> Vertex 1 {m}
    83.5465944,-3.45682824e-07,7.4676,  !- X,Y,Z ==> Vertex 2 {m}
    85.9849944,-3.45682824e-07,7.4676,  !- X,Y,Z ==> Vertex 3 {m}
    85.9849944,-3.45682824e-07,8.9916;  !- X,Y,Z ==> Vertex 4 {m}

  FenestrationSurface:Detailed,
    EL4 South Win (M.S14.E28.W13),  !- Name
    Window,                  !- Surface Type
    Exterior Window,         !- Construction Name
    EL4 South Wall (M.S14.E28),  !- Building Surface Name
    ,                        !- Outside Boundary Condition Object
    ,                        !- View Factor to Ground
    ,                        !- Frame and Divider Name
    ,                        !- Multiplier
    ,                        !- Number of Vertices
    88.9004064,-3.45682824e-07,8.9916,  !- X,Y,Z ==> Vertex 1 {m}
    88.9004064,-3.45682824e-07,7.4676,  !- X,Y,Z ==> Vertex 2 {m}
    91.3388064,-3.45682824e-07,7.4676,  !- X,Y,Z ==> Vertex 3 {m}
    91.3388064,-3.45682824e-07,8.9916;  !- X,Y,Z ==> Vertex 4 {m}

  FenestrationSurface:Detailed,
    EL4 South Win (M.S14.E28.W2),  !- Name
    Window,                  !- Surface Type
    Exterior Window,         !- Construction Name
    EL4 South Wall (M.S14.E28),  !- Building Surface Name
    ,                        !- Outside Boundary Condition Object
    ,                        !- View Factor to Ground
    ,                        !- Frame and Divider Name
    ,                        !- Multiplier
    ,                        !- Number of Vertices
    30.00966312,-3.45682824e-07,8.9916,  !- X,Y,Z ==> Vertex 1 {m}
    30.00966312,-3.45682824e-07,7.4676,  !- X,Y,Z ==> Vertex 2 {m}
    32.4480936,-3.45682824e-07,7.4676,  !- X,Y,Z ==> Vertex 3 {m}
    32.4480936,-3.45682824e-07,8.9916;  !- X,Y,Z ==> Vertex 4 {m}

  FenestrationSurface:Detailed,
    EL4 South Win (M.S14.E28.W3),  !- Name
    Window,                  !- Surface Type
    Exterior Window,         !- Construction Name
    EL4 South Wall (M.S14.E28),  !- Building Surface Name
    ,                        !- Outside Boundary Condition Object
    ,                        !- View Factor to Ground
    ,                        !- Frame and Divider Name
    ,                        !- Multiplier
    ,                        !- Number of Vertices
    35.3632008,-3.45682824e-07,8.9916,  !- X,Y,Z ==> Vertex 1 {m}
    35.3632008,-3.45682824e-07,7.4676,  !- X,Y,Z ==> Vertex 2 {m}
    37.8016008,-3.45682824e-07,7.4676,  !- X,Y,Z ==> Vertex 3 {m}
    37.8016008,-3.45682824e-07,8.9916;  !- X,Y,Z ==> Vertex 4 {m}

  FenestrationSurface:Detailed,
    EL4 South Win (M.S14.E28.W4),  !- Name
    Window,                  !- Surface Type
    Exterior Window,         !- Construction Name
    EL4 South Wall (M.S14.E28),  !- Building Surface Name
    ,                        !- Outside Boundary Condition Object
    ,                        !- View Factor to Ground
    ,                        !- Frame and Divider Name
    ,                        !- Multiplier
    ,                        !- Number of Vertices
    40.7170128,-3.45682824e-07,8.9916,  !- X,Y,Z ==> Vertex 1 {m}
    40.7170128,-3.45682824e-07,7.4676,  !- X,Y,Z ==> Vertex 2 {m}
    43.1554128,-3.45682824e-07,7.4676,  !- X,Y,Z ==> Vertex 3 {m}
    43.1554128,-3.45682824e-07,8.9916;  !- X,Y,Z ==> Vertex 4 {m}

  FenestrationSurface:Detailed,
    EL4 South Win (M.S14.E28.W5),  !- Name
    Window,                  !- Surface Type
    Exterior Window,         !- Construction Name
    EL4 South Wall (M.S14.E28),  !- Building Surface Name
    ,                        !- Outside Boundary Condition Object
    ,                        !- View Factor to Ground
    ,                        !- Frame and Divider Name
    ,                        !- Multiplier
    ,                        !- Number of Vertices
    46.0708248,-3.45682824e-07,8.9916,  !- X,Y,Z ==> Vertex 1 {m}
    46.0708248,-3.45682824e-07,7.4676,  !- X,Y,Z ==> Vertex 2 {m}
    48.5092248,-3.45682824e-07,7.4676,  !- X,Y,Z ==> Vertex 3 {m}
    48.5092248,-3.45682824e-07,8.9916;  !- X,Y,Z ==> Vertex 4 {m}

  FenestrationSurface:Detailed,
    EL4 South Win (M.S14.E28.W6),  !- Name
    Window,                  !- Surface Type
    Exterior Window,         !- Construction Name
    EL4 South Wall (M.S14.E28),  !- Building Surface Name
    ,                        !- Outside Boundary Condition Object
    ,                        !- View Factor to Ground
    ,                        !- Frame and Divider Name
    ,                        !- Multiplier
    ,                        !- Number of Vertices
    51.424332,-3.45682824e-07,8.9916,  !- X,Y,Z ==> Vertex 1 {m}
    51.424332,-3.45682824e-07,7.4676,  !- X,Y,Z ==> Vertex 2 {m}
    53.862732,-3.45682824e-07,7.4676,  !- X,Y,Z ==> Vertex 3 {m}
    53.862732,-3.45682824e-07,8.9916;  !- X,Y,Z ==> Vertex 4 {m}

  FenestrationSurface:Detailed,
    EL4 South Win (M.S14.E28.W7),  !- Name
    Window,                  !- Surface Type
    Exterior Window,         !- Construction Name
    EL4 South Wall (M.S14.E28),  !- Building Surface Name
    ,                        !- Outside Boundary Condition Object
    ,                        !- View Factor to Ground
    ,                        !- Frame and Divider Name
    ,                        !- Multiplier
    ,                        !- Number of Vertices
    56.778144,-3.45682824e-07,8.9916,  !- X,Y,Z ==> Vertex 1 {m}
    56.778144,-3.45682824e-07,7.4676,  !- X,Y,Z ==> Vertex 2 {m}
    59.216544,-3.45682824e-07,7.4676,  !- X,Y,Z ==> Vertex 3 {m}
    59.216544,-3.45682824e-07,8.9916;  !- X,Y,Z ==> Vertex 4 {m}

  FenestrationSurface:Detailed,
    EL4 South Win (M.S14.E28.W8),  !- Name
    Window,                  !- Surface Type
    Exterior Window,         !- Construction Name
    EL4 South Wall (M.S14.E28),  !- Building Surface Name
    ,                        !- Outside Boundary Condition Object
    ,                        !- View Factor to Ground
    ,                        !- Frame and Divider Name
    ,                        !- Multiplier
    ,                        !- Number of Vertices
    62.131956,-3.45682824e-07,8.9916,  !- X,Y,Z ==> Vertex 1 {m}
    62.131956,-3.45682824e-07,7.4676,  !- X,Y,Z ==> Vertex 2 {m}
    64.570356,-3.45682824e-07,7.4676,  !- X,Y,Z ==> Vertex 3 {m}
    64.570356,-3.45682824e-07,8.9916;  !- X,Y,Z ==> Vertex 4 {m}

  FenestrationSurface:Detailed,
    EL4 South Win (M.S14.E28.W9),  !- Name
    Window,                  !- Surface Type
    Exterior Window,         !- Construction Name
    EL4 South Wall (M.S14.E28),  !- Building Surface Name
    ,                        !- Outside Boundary Condition Object
    ,                        !- View Factor to Ground
    ,                        !- Frame and Divider Name
    ,                        !- Multiplier
    ,                        !- Number of Vertices
    67.4854632,-3.45682824e-07,8.9916,  !- X,Y,Z ==> Vertex 1 {m}
    67.4854632,-3.45682824e-07,7.4676,  !- X,Y,Z ==> Vertex 2 {m}
    69.9238632,-3.45682824e-07,7.4676,  !- X,Y,Z ==> Vertex 3 {m}
    69.9238632,-3.45682824e-07,8.9916;  !- X,Y,Z ==> Vertex 4 {m}

  FenestrationSurface:Detailed,
    EL4 South Win (M.SSW12.E23.W1),  !- Name
    Window,                  !- Surface Type
    Exterior Window,         !- Construction Name
    EL4 South Wall (M.SSW12.E23),  !- Building Surface Name
    ,                        !- Outside Boundary Condition Object
    ,                        !- View Factor to Ground
    ,                        !- Frame and Divider Name
    ,                        !- Multiplier
    ,                        !- Number of Vertices
    1.261987824,-3.45682824e-07,8.9916,  !- X,Y,Z ==> Vertex 1 {m}
    1.261987824,-3.45682824e-07,7.4676,  !- X,Y,Z ==> Vertex 2 {m}
    3.70039392,-3.45682824e-07,7.4676,  !- X,Y,Z ==> Vertex 3 {m}
    3.70039392,-3.45682824e-07,8.9916;  !- X,Y,Z ==> Vertex 4 {m}

  FenestrationSurface:Detailed,
    EL4 South Win (M.SSW12.E23.W2),  !- Name
    Window,                  !- Surface Type
    Exterior Window,         !- Construction Name
    EL4 South Wall (M.SSW12.E23),  !- Building Surface Name
    ,                        !- Outside Boundary Condition Object
    ,                        !- View Factor to Ground
    ,                        !- Frame and Divider Name
    ,                        !- Multiplier
    ,                        !- Number of Vertices
    6.22438176,-3.45682824e-07,8.9916,  !- X,Y,Z ==> Vertex 1 {m}
    6.22438176,-3.45682824e-07,7.4676,  !- X,Y,Z ==> Vertex 2 {m}
    8.66278176,-3.45682824e-07,7.4676,  !- X,Y,Z ==> Vertex 3 {m}
    8.66278176,-3.45682824e-07,8.9916;  !- X,Y,Z ==> Vertex 4 {m}

  FenestrationSurface:Detailed,
    EL4 South Win (M.SSW12.E23.W3),  !- Name
    Window,                  !- Surface Type
    Exterior Window,         !- Construction Name
    EL4 South Wall (M.SSW12.E23),  !- Building Surface Name
    ,                        !- Outside Boundary Condition Object
    ,                        !- View Factor to Ground
    ,                        !- Frame and Divider Name
    ,                        !- Multiplier
    ,                        !- Number of Vertices
    11.18673912,-3.45682824e-07,8.9916,  !- X,Y,Z ==> Vertex 1 {m}
    11.18673912,-3.45682824e-07,7.4676,  !- X,Y,Z ==> Vertex 2 {m}
    13.62513912,-3.45682824e-07,7.4676,  !- X,Y,Z ==> Vertex 3 {m}
    13.62513912,-3.45682824e-07,8.9916;  !- X,Y,Z ==> Vertex 4 {m}

  FenestrationSurface:Detailed,
    EL4 South Win (M.SSW12.E23.W4),  !- Name
    Window,                  !- Surface Type
    Exterior Window,         !- Construction Name
    EL4 South Wall (M.SSW12.E23),  !- Building Surface Name
    ,                        !- Outside Boundary Condition Object
    ,                        !- View Factor to Ground
    ,                        !- Frame and Divider Name
    ,                        !- Multiplier
    ,                        !- Number of Vertices
    16.14912696,-3.45682824e-07,8.9916,  !- X,Y,Z ==> Vertex 1 {m}
    16.14912696,-3.45682824e-07,7.4676,  !- X,Y,Z ==> Vertex 2 {m}
    18.58752696,-3.45682824e-07,7.4676,  !- X,Y,Z ==> Vertex 3 {m}
    18.58752696,-3.45682824e-07,8.9916;  !- X,Y,Z ==> Vertex 4 {m}

  FenestrationSurface:Detailed,
    EL4 South Win (M.SSW12.E23.W5),  !- Name
    Window,                  !- Surface Type
    Exterior Window,         !- Construction Name
    EL4 South Wall (M.SSW12.E23),  !- Building Surface Name
    ,                        !- Outside Boundary Condition Object
    ,                        !- View Factor to Ground
    ,                        !- Frame and Divider Name
    ,                        !- Multiplier
    ,                        !- Number of Vertices
    21.1115148,-3.45682824e-07,8.9916,  !- X,Y,Z ==> Vertex 1 {m}
    21.1115148,-3.45682824e-07,7.4676,  !- X,Y,Z ==> Vertex 2 {m}
    21.93636456,-3.45682824e-07,7.4676,  !- X,Y,Z ==> Vertex 3 {m}
    21.93636456,-3.45682824e-07,8.9916;  !- X,Y,Z ==> Vertex 4 {m}

  FenestrationSurface:Detailed,
    EL4 South Win (T.S24.E48.W1),  !- Name
    Window,                  !- Surface Type
    Exterior Window,         !- Construction Name
    EL4 South Wall (T.S24.E48),  !- Building Surface Name
    ,                        !- Outside Boundary Condition Object
    ,                        !- View Factor to Ground
    ,                        !- Frame and Divider Name
    ,                        !- Multiplier
    ,                        !- Number of Vertices
    24.65597304,0,11.8872,  !- X,Y,Z ==> Vertex 1 {m}
    24.65597304,0,10.3632,  !- X,Y,Z ==> Vertex 2 {m}
    27.09437304,0,10.3632,  !- X,Y,Z ==> Vertex 3 {m}
    27.09437304,0,11.8872;  !- X,Y,Z ==> Vertex 4 {m}

  FenestrationSurface:Detailed,
    EL4 South Win (T.S24.E48.W10),  !- Name
    Window,                  !- Surface Type
    Exterior Window,         !- Construction Name
    EL4 South Wall (T.S24.E48),  !- Building Surface Name
    ,                        !- Outside Boundary Condition Object
    ,                        !- View Factor to Ground
    ,                        !- Frame and Divider Name
    ,                        !- Multiplier
    ,                        !- Number of Vertices
    72.8392752,0,11.8872,  !- X,Y,Z ==> Vertex 1 {m}
    72.8392752,0,10.3632,  !- X,Y,Z ==> Vertex 2 {m}
    75.2776752,0,10.3632,  !- X,Y,Z ==> Vertex 3 {m}
    75.2776752,0,11.8872;  !- X,Y,Z ==> Vertex 4 {m}

  FenestrationSurface:Detailed,
    EL4 South Win (T.S24.E48.W11),  !- Name
    Window,                  !- Surface Type
    Exterior Window,         !- Construction Name
    EL4 South Wall (T.S24.E48),  !- Building Surface Name
    ,                        !- Outside Boundary Condition Object
    ,                        !- View Factor to Ground
    ,                        !- Frame and Divider Name
    ,                        !- Multiplier
    ,                        !- Number of Vertices
    78.1927824,0,11.8872,  !- X,Y,Z ==> Vertex 1 {m}
    78.1927824,0,10.3632,  !- X,Y,Z ==> Vertex 2 {m}
    80.6311824,0,10.3632,  !- X,Y,Z ==> Vertex 3 {m}
    80.6311824,0,11.8872;  !- X,Y,Z ==> Vertex 4 {m}

  FenestrationSurface:Detailed,
    EL4 South Win (T.S24.E48.W12),  !- Name
    Window,                  !- Surface Type
    Exterior Window,         !- Construction Name
    EL4 South Wall (T.S24.E48),  !- Building Surface Name
    ,                        !- Outside Boundary Condition Object
    ,                        !- View Factor to Ground
    ,                        !- Frame and Divider Name
    ,                        !- Multiplier
    ,                        !- Number of Vertices
    83.5465944,0,11.8872,  !- X,Y,Z ==> Vertex 1 {m}
    83.5465944,0,10.3632,  !- X,Y,Z ==> Vertex 2 {m}
    85.9849944,0,10.3632,  !- X,Y,Z ==> Vertex 3 {m}
    85.9849944,0,11.8872;  !- X,Y,Z ==> Vertex 4 {m}

  FenestrationSurface:Detailed,
    EL4 South Win (T.S24.E48.W13),  !- Name
    Window,                  !- Surface Type
    Exterior Window,         !- Construction Name
    EL4 South Wall (T.S24.E48),  !- Building Surface Name
    ,                        !- Outside Boundary Condition Object
    ,                        !- View Factor to Ground
    ,                        !- Frame and Divider Name
    ,                        !- Multiplier
    ,                        !- Number of Vertices
    88.9004064,0,11.8872,  !- X,Y,Z ==> Vertex 1 {m}
    88.9004064,0,10.3632,  !- X,Y,Z ==> Vertex 2 {m}
    91.3388064,0,10.3632,  !- X,Y,Z ==> Vertex 3 {m}
    91.3388064,0,11.8872;  !- X,Y,Z ==> Vertex 4 {m}

  FenestrationSurface:Detailed,
    EL4 South Win (T.S24.E48.W2),  !- Name
    Window,                  !- Surface Type
    Exterior Window,         !- Construction Name
    EL4 South Wall (T.S24.E48),  !- Building Surface Name
    ,                        !- Outside Boundary Condition Object
    ,                        !- View Factor to Ground
    ,                        !- Frame and Divider Name
    ,                        !- Multiplier
    ,                        !- Number of Vertices
    30.00966312,0,11.8872,  !- X,Y,Z ==> Vertex 1 {m}
    30.00966312,0,10.3632,  !- X,Y,Z ==> Vertex 2 {m}
    32.4480936,0,10.3632,  !- X,Y,Z ==> Vertex 3 {m}
    32.4480936,0,11.8872;  !- X,Y,Z ==> Vertex 4 {m}

  FenestrationSurface:Detailed,
    EL4 South Win (T.S24.E48.W3),  !- Name
    Window,                  !- Surface Type
    Exterior Window,         !- Construction Name
    EL4 South Wall (T.S24.E48),  !- Building Surface Name
    ,                        !- Outside Boundary Condition Object
    ,                        !- View Factor to Ground
    ,                        !- Frame and Divider Name
    ,                        !- Multiplier
    ,                        !- Number of Vertices
    35.3632008,0,11.8872,  !- X,Y,Z ==> Vertex 1 {m}
    35.3632008,0,10.3632,  !- X,Y,Z ==> Vertex 2 {m}
    37.8016008,0,10.3632,  !- X,Y,Z ==> Vertex 3 {m}
    37.8016008,0,11.8872;  !- X,Y,Z ==> Vertex 4 {m}

  FenestrationSurface:Detailed,
    EL4 South Win (T.S24.E48.W4),  !- Name
    Window,                  !- Surface Type
    Exterior Window,         !- Construction Name
    EL4 South Wall (T.S24.E48),  !- Building Surface Name
    ,                        !- Outside Boundary Condition Object
    ,                        !- View Factor to Ground
    ,                        !- Frame and Divider Name
    ,                        !- Multiplier
    ,                        !- Number of Vertices
    40.7170128,0,11.8872,  !- X,Y,Z ==> Vertex 1 {m}
    40.7170128,0,10.3632,  !- X,Y,Z ==> Vertex 2 {m}
    43.1554128,0,10.3632,  !- X,Y,Z ==> Vertex 3 {m}
    43.1554128,0,11.8872;  !- X,Y,Z ==> Vertex 4 {m}

  FenestrationSurface:Detailed,
    EL4 South Win (T.S24.E48.W5),  !- Name
    Window,                  !- Surface Type
    Exterior Window,         !- Construction Name
    EL4 South Wall (T.S24.E48),  !- Building Surface Name
    ,                        !- Outside Boundary Condition Object
    ,                        !- View Factor to Ground
    ,                        !- Frame and Divider Name
    ,                        !- Multiplier
    ,                        !- Number of Vertices
    46.0708248,0,11.8872,  !- X,Y,Z ==> Vertex 1 {m}
    46.0708248,0,10.3632,  !- X,Y,Z ==> Vertex 2 {m}
    48.5092248,0,10.3632,  !- X,Y,Z ==> Vertex 3 {m}
    48.5092248,0,11.8872;  !- X,Y,Z ==> Vertex 4 {m}

  FenestrationSurface:Detailed,
    EL4 South Win (T.S24.E48.W6),  !- Name
    Window,                  !- Surface Type
    Exterior Window,         !- Construction Name
    EL4 South Wall (T.S24.E48),  !- Building Surface Name
    ,                        !- Outside Boundary Condition Object
    ,                        !- View Factor to Ground
    ,                        !- Frame and Divider Name
    ,                        !- Multiplier
    ,                        !- Number of Vertices
    51.424332,0,11.8872,  !- X,Y,Z ==> Vertex 1 {m}
    51.424332,0,10.3632,  !- X,Y,Z ==> Vertex 2 {m}
    53.862732,0,10.3632,  !- X,Y,Z ==> Vertex 3 {m}
    53.862732,0,11.8872;  !- X,Y,Z ==> Vertex 4 {m}

  FenestrationSurface:Detailed,
    EL4 South Win (T.S24.E48.W7),  !- Name
    Window,                  !- Surface Type
    Exterior Window,         !- Construction Name
    EL4 South Wall (T.S24.E48),  !- Building Surface Name
    ,                        !- Outside Boundary Condition Object
    ,                        !- View Factor to Ground
    ,                        !- Frame and Divider Name
    ,                        !- Multiplier
    ,                        !- Number of Vertices
    56.778144,0,11.8872,  !- X,Y,Z ==> Vertex 1 {m}
    56.778144,0,10.3632,  !- X,Y,Z ==> Vertex 2 {m}
    59.216544,0,10.3632,  !- X,Y,Z ==> Vertex 3 {m}
    59.216544,0,11.8872;  !- X,Y,Z ==> Vertex 4 {m}

  FenestrationSurface:Detailed,
    EL4 South Win (T.S24.E48.W8),  !- Name
    Window,                  !- Surface Type
    Exterior Window,         !- Construction Name
    EL4 South Wall (T.S24.E48),  !- Building Surface Name
    ,                        !- Outside Boundary Condition Object
    ,                        !- View Factor to Ground
    ,                        !- Frame and Divider Name
    ,                        !- Multiplier
    ,                        !- Number of Vertices
    62.131956,0,11.8872,  !- X,Y,Z ==> Vertex 1 {m}
    62.131956,0,10.3632,  !- X,Y,Z ==> Vertex 2 {m}
    64.570356,0,10.3632,  !- X,Y,Z ==> Vertex 3 {m}
    64.570356,0,11.8872;  !- X,Y,Z ==> Vertex 4 {m}

  FenestrationSurface:Detailed,
    EL4 South Win (T.S24.E48.W9),  !- Name
    Window,                  !- Surface Type
    Exterior Window,         !- Construction Name
    EL4 South Wall (T.S24.E48),  !- Building Surface Name
    ,                        !- Outside Boundary Condition Object
    ,                        !- View Factor to Ground
    ,                        !- Frame and Divider Name
    ,                        !- Multiplier
    ,                        !- Number of Vertices
    67.4854632,0,11.8872,  !- X,Y,Z ==> Vertex 1 {m}
    67.4854632,0,10.3632,  !- X,Y,Z ==> Vertex 2 {m}
    69.9238632,0,10.3632,  !- X,Y,Z ==> Vertex 3 {m}
    69.9238632,0,11.8872;  !- X,Y,Z ==> Vertex 4 {m}

  FenestrationSurface:Detailed,
    EL4 South Win (T.SSW22.E43.W1),  !- Name
    Window,                  !- Surface Type
    Exterior Window,         !- Construction Name
    EL4 South Wall (T.SSW22.E43),  !- Building Surface Name
    ,                        !- Outside Boundary Condition Object
    ,                        !- View Factor to Ground
    ,                        !- Frame and Divider Name
    ,                        !- Multiplier
    ,                        !- Number of Vertices
    1.261987824,-3.45682824e-07,11.8872,  !- X,Y,Z ==> Vertex 1 {m}
    1.261987824,-3.45682824e-07,10.3632,  !- X,Y,Z ==> Vertex 2 {m}
    3.70039392,-3.45682824e-07,10.3632,  !- X,Y,Z ==> Vertex 3 {m}
    3.70039392,-3.45682824e-07,11.8872;  !- X,Y,Z ==> Vertex 4 {m}

  FenestrationSurface:Detailed,
    EL4 South Win (T.SSW22.E43.W2),  !- Name
    Window,                  !- Surface Type
    Exterior Window,         !- Construction Name
    EL4 South Wall (T.SSW22.E43),  !- Building Surface Name
    ,                        !- Outside Boundary Condition Object
    ,                        !- View Factor to Ground
    ,                        !- Frame and Divider Name
    ,                        !- Multiplier
    ,                        !- Number of Vertices
    6.22438176,-3.45682824e-07,11.8872,  !- X,Y,Z ==> Vertex 1 {m}
    6.22438176,-3.45682824e-07,10.3632,  !- X,Y,Z ==> Vertex 2 {m}
    8.66278176,-3.45682824e-07,10.3632,  !- X,Y,Z ==> Vertex 3 {m}
    8.66278176,-3.45682824e-07,11.8872;  !- X,Y,Z ==> Vertex 4 {m}

  FenestrationSurface:Detailed,
    EL4 South Win (T.SSW22.E43.W3),  !- Name
    Window,                  !- Surface Type
    Exterior Window,         !- Construction Name
    EL4 South Wall (T.SSW22.E43),  !- Building Surface Name
    ,                        !- Outside Boundary Condition Object
    ,                        !- View Factor to Ground
    ,                        !- Frame and Divider Name
    ,                        !- Multiplier
    ,                        !- Number of Vertices
    11.18673912,-3.45682824e-07,11.8872,  !- X,Y,Z ==> Vertex 1 {m}
    11.18673912,-3.45682824e-07,10.3632,  !- X,Y,Z ==> Vertex 2 {m}
    13.62513912,-3.45682824e-07,10.3632,  !- X,Y,Z ==> Vertex 3 {m}
    13.62513912,-3.45682824e-07,11.8872;  !- X,Y,Z ==> Vertex 4 {m}

  FenestrationSurface:Detailed,
    EL4 South Win (T.SSW22.E43.W4),  !- Name
    Window,                  !- Surface Type
    Exterior Window,         !- Construction Name
    EL4 South Wall (T.SSW22.E43),  !- Building Surface Name
    ,                        !- Outside Boundary Condition Object
    ,                        !- View Factor to Ground
    ,                        !- Frame and Divider Name
    ,                        !- Multiplier
    ,                        !- Number of Vertices
    16.14912696,-3.45682824e-07,11.8872,  !- X,Y,Z ==> Vertex 1 {m}
    16.14912696,-3.45682824e-07,10.3632,  !- X,Y,Z ==> Vertex 2 {m}
    18.58752696,-3.45682824e-07,10.3632,  !- X,Y,Z ==> Vertex 3 {m}
    18.58752696,-3.45682824e-07,11.8872;  !- X,Y,Z ==> Vertex 4 {m}

  FenestrationSurface:Detailed,
    EL4 South Win (T.SSW22.E43.W5),  !- Name
    Window,                  !- Surface Type
    Exterior Window,         !- Construction Name
    EL4 South Wall (T.SSW22.E43),  !- Building Surface Name
    ,                        !- Outside Boundary Condition Object
    ,                        !- View Factor to Ground
    ,                        !- Frame and Divider Name
    ,                        !- Multiplier
    ,                        !- Number of Vertices
    21.1115148,-3.45682824e-07,11.8872,  !- X,Y,Z ==> Vertex 1 {m}
    21.1115148,-3.45682824e-07,10.3632,  !- X,Y,Z ==> Vertex 2 {m}
    21.93636456,-3.45682824e-07,10.3632,  !- X,Y,Z ==> Vertex 3 {m}
    21.93636456,-3.45682824e-07,11.8872;  !- X,Y,Z ==> Vertex 4 {m}

  FenestrationSurface:Detailed,
    EL4 West Win (G.C5.E10.W1),  !- Name
    Window,                  !- Surface Type
    Exterior Window,         !- Construction Name
    EL4 West Wall (G.C5.E10),!- Building Surface Name
    ,                        !- Outside Boundary Condition Object
    ,                        !- View Factor to Ground
    ,                        !- Frame and Divider Name
    ,                        !- Multiplier
    ,                        !- Number of Vertices
    0,8.64934008,6.096,  !- X,Y,Z ==> Vertex 1 {m}
    0,8.64934008,4.572,  !- X,Y,Z ==> Vertex 2 {m}
    0,7.80985992,4.572,  !- X,Y,Z ==> Vertex 3 {m}
    0,7.80985992,6.096;  !- X,Y,Z ==> Vertex 4 {m}

  FenestrationSurface:Detailed,
    EL4 West Win (G.N1.E1.W1),  !- Name
    Window,                  !- Surface Type
    Exterior Window,         !- Construction Name
    EL4 West Wall (G.N1.E1), !- Building Surface Name
    ,                        !- Outside Boundary Condition Object
    ,                        !- View Factor to Ground
    ,                        !- Frame and Divider Name
    ,                        !- Multiplier
    ,                        !- Number of Vertices
    0,15.46515576,6.096,  !- X,Y,Z ==> Vertex 1 {m}
    0,15.46515576,4.572,  !- X,Y,Z ==> Vertex 2 {m}
    0,13.02675576,4.572,  !- X,Y,Z ==> Vertex 3 {m}
    0,13.02675576,6.096;  !- X,Y,Z ==> Vertex 4 {m}

  FenestrationSurface:Detailed,
    EL4 West Win (G.N1.E1.W2),  !- Name
    Window,                  !- Surface Type
    Exterior Window,         !- Construction Name
    EL4 West Wall (G.N1.E1), !- Building Surface Name
    ,                        !- Outside Boundary Condition Object
    ,                        !- View Factor to Ground
    ,                        !- Frame and Divider Name
    ,                        !- Multiplier
    ,                        !- Number of Vertices
    0,11.03869776,6.096,  !- X,Y,Z ==> Vertex 1 {m}
    0,11.03869776,4.572,  !- X,Y,Z ==> Vertex 2 {m}
    0,10.14414024,4.572,  !- X,Y,Z ==> Vertex 3 {m}
    0,10.14414024,6.096;  !- X,Y,Z ==> Vertex 4 {m}

  FenestrationSurface:Detailed,
    EL4 West Win (G.SSW2.E4.W1),  !- Name
    Window,                  !- Surface Type
    Exterior Window,         !- Construction Name
    EL4 West Wall (G.SSW2.E4),  !- Building Surface Name
    ,                        !- Outside Boundary Condition Object
    ,                        !- View Factor to Ground
    ,                        !- Frame and Divider Name
    ,                        !- Multiplier
    ,                        !- Number of Vertices
    0,6.31505976,6.096,  !- X,Y,Z ==> Vertex 1 {m}
    0,6.31505976,4.572,  !- X,Y,Z ==> Vertex 2 {m}
    0,3.87665976,4.572,  !- X,Y,Z ==> Vertex 3 {m}
    0,3.87665976,6.096;  !- X,Y,Z ==> Vertex 4 {m}

  FenestrationSurface:Detailed,
    EL4 West Win (G.SSW2.E4.W2),  !- Name
    Window,                  !- Surface Type
    Exterior Window,         !- Construction Name
    EL4 West Wall (G.SSW2.E4),  !- Building Surface Name
    ,                        !- Outside Boundary Condition Object
    ,                        !- View Factor to Ground
    ,                        !- Frame and Divider Name
    ,                        !- Multiplier
    ,                        !- Number of Vertices
    0,1.88860176,6.096,  !- X,Y,Z ==> Vertex 1 {m}
    0,1.88860176,4.572,  !- X,Y,Z ==> Vertex 2 {m}
    0,0.994050336,4.572,  !- X,Y,Z ==> Vertex 3 {m}
    0,0.994050336,6.096;  !- X,Y,Z ==> Vertex 4 {m}

  FenestrationSurface:Detailed,
    EL4 West Win (M.C15.E30.W1),  !- Name
    Window,                  !- Surface Type
    Exterior Window,         !- Construction Name
    EL4 West Wall (M.C15.E30),  !- Building Surface Name
    ,                        !- Outside Boundary Condition Object
    ,                        !- View Factor to Ground
    ,                        !- Frame and Divider Name
    ,                        !- Multiplier
    ,                        !- Number of Vertices
    0,8.64934008,8.9916,  !- X,Y,Z ==> Vertex 1 {m}
    0,8.64934008,7.4676,  !- X,Y,Z ==> Vertex 2 {m}
    0,7.80985992,7.4676,  !- X,Y,Z ==> Vertex 3 {m}
    0,7.80985992,8.9916;  !- X,Y,Z ==> Vertex 4 {m}

  FenestrationSurface:Detailed,
    EL4 West Win (M.N11.E21.W1),  !- Name
    Window,                  !- Surface Type
    Exterior Window,         !- Construction Name
    EL4 West Wall (M.N11.E21),  !- Building Surface Name
    ,                        !- Outside Boundary Condition Object
    ,                        !- View Factor to Ground
    ,                        !- Frame and Divider Name
    ,                        !- Multiplier
    ,                        !- Number of Vertices
    0,15.46515576,8.9916,  !- X,Y,Z ==> Vertex 1 {m}
    0,15.46515576,7.4676,  !- X,Y,Z ==> Vertex 2 {m}
    0,13.02675576,7.4676,  !- X,Y,Z ==> Vertex 3 {m}
    0,13.02675576,8.9916;  !- X,Y,Z ==> Vertex 4 {m}

  FenestrationSurface:Detailed,
    EL4 West Win (M.N11.E21.W2),  !- Name
    Window,                  !- Surface Type
    Exterior Window,         !- Construction Name
    EL4 West Wall (M.N11.E21),  !- Building Surface Name
    ,                        !- Outside Boundary Condition Object
    ,                        !- View Factor to Ground
    ,                        !- Frame and Divider Name
    ,                        !- Multiplier
    ,                        !- Number of Vertices
    0,11.03869776,8.9916,  !- X,Y,Z ==> Vertex 1 {m}
    0,11.03869776,7.4676,  !- X,Y,Z ==> Vertex 2 {m}
    0,10.14414024,7.4676,  !- X,Y,Z ==> Vertex 3 {m}
    0,10.14414024,8.9916;  !- X,Y,Z ==> Vertex 4 {m}

  FenestrationSurface:Detailed,
    EL4 West Win (M.SSW12.E24.W1),  !- Name
    Window,                  !- Surface Type
    Exterior Window,         !- Construction Name
    EL4 West Wall (M.SSW12.E24),  !- Building Surface Name
    ,                        !- Outside Boundary Condition Object
    ,                        !- View Factor to Ground
    ,                        !- Frame and Divider Name
    ,                        !- Multiplier
    ,                        !- Number of Vertices
    0,6.31505976,8.9916,  !- X,Y,Z ==> Vertex 1 {m}
    0,6.31505976,7.4676,  !- X,Y,Z ==> Vertex 2 {m}
    0,3.87665976,7.4676,  !- X,Y,Z ==> Vertex 3 {m}
    0,3.87665976,8.9916;  !- X,Y,Z ==> Vertex 4 {m}

  FenestrationSurface:Detailed,
    EL4 West Win (M.SSW12.E24.W2),  !- Name
    Window,                  !- Surface Type
    Exterior Window,         !- Construction Name
    EL4 West Wall (M.SSW12.E24),  !- Building Surface Name
    ,                        !- Outside Boundary Condition Object
    ,                        !- View Factor to Ground
    ,                        !- Frame and Divider Name
    ,                        !- Multiplier
    ,                        !- Number of Vertices
    0,1.88860176,8.9916,  !- X,Y,Z ==> Vertex 1 {m}
    0,1.88860176,7.4676,  !- X,Y,Z ==> Vertex 2 {m}
    0,0.994050336,7.4676,  !- X,Y,Z ==> Vertex 3 {m}
    0,0.994050336,8.9916;  !- X,Y,Z ==> Vertex 4 {m}

  FenestrationSurface:Detailed,
    EL4 West Win (T.C25.E50.W1),  !- Name
    Window,                  !- Surface Type
    Exterior Window,         !- Construction Name
    EL4 West Wall (T.C25.E50),  !- Building Surface Name
    ,                        !- Outside Boundary Condition Object
    ,                        !- View Factor to Ground
    ,                        !- Frame and Divider Name
    ,                        !- Multiplier
    ,                        !- Number of Vertices
    0,8.64934008,11.8872,  !- X,Y,Z ==> Vertex 1 {m}
    0,8.64934008,10.3632,  !- X,Y,Z ==> Vertex 2 {m}
    0,7.80985992,10.3632,  !- X,Y,Z ==> Vertex 3 {m}
    0,7.80985992,11.8872;  !- X,Y,Z ==> Vertex 4 {m}

  FenestrationSurface:Detailed,
    EL4 West Win (T.N21.E41.W1),  !- Name
    Window,                  !- Surface Type
    Exterior Window,         !- Construction Name
    EL4 West Wall (T.N21.E41),  !- Building Surface Name
    ,                        !- Outside Boundary Condition Object
    ,                        !- View Factor to Ground
    ,                        !- Frame and Divider Name
    ,                        !- Multiplier
    ,                        !- Number of Vertices
    0,15.46515576,11.8872,  !- X,Y,Z ==> Vertex 1 {m}
    0,15.46515576,10.3632,  !- X,Y,Z ==> Vertex 2 {m}
    0,13.02675576,10.3632,  !- X,Y,Z ==> Vertex 3 {m}
    0,13.02675576,11.8872;  !- X,Y,Z ==> Vertex 4 {m}

  FenestrationSurface:Detailed,
    EL4 West Win (T.N21.E41.W2),  !- Name
    Window,                  !- Surface Type
    Exterior Window,         !- Construction Name
    EL4 West Wall (T.N21.E41),  !- Building Surface Name
    ,                        !- Outside Boundary Condition Object
    ,                        !- View Factor to Ground
    ,                        !- Frame and Divider Name
    ,                        !- Multiplier
    ,                        !- Number of Vertices
    0,11.03869776,11.8872,  !- X,Y,Z ==> Vertex 1 {m}
    0,11.03869776,10.3632,  !- X,Y,Z ==> Vertex 2 {m}
    0,10.14414024,10.3632,  !- X,Y,Z ==> Vertex 3 {m}
    0,10.14414024,11.8872;  !- X,Y,Z ==> Vertex 4 {m}

  FenestrationSurface:Detailed,
    EL4 West Win (T.SSW22.E44.W1),  !- Name
    Window,                  !- Surface Type
    Exterior Window,         !- Construction Name
    EL4 West Wall (T.SSW22.E44),  !- Building Surface Name
    ,                        !- Outside Boundary Condition Object
    ,                        !- View Factor to Ground
    ,                        !- Frame and Divider Name
    ,                        !- Multiplier
    ,                        !- Number of Vertices
    0,6.31505976,11.8872,  !- X,Y,Z ==> Vertex 1 {m}
    0,6.31505976,10.3632,  !- X,Y,Z ==> Vertex 2 {m}
    0,3.87665976,10.3632,  !- X,Y,Z ==> Vertex 3 {m}
    0,3.87665976,11.8872;  !- X,Y,Z ==> Vertex 4 {m}

  FenestrationSurface:Detailed,
    EL4 West Win (T.SSW22.E44.W2),  !- Name
    Window,                  !- Surface Type
    Exterior Window,         !- Construction Name
    EL4 West Wall (T.SSW22.E44),  !- Building Surface Name
    ,                        !- Outside Boundary Condition Object
    ,                        !- View Factor to Ground
    ,                        !- Frame and Divider Name
    ,                        !- Multiplier
    ,                        !- Number of Vertices
    0,1.88860176,11.8872,  !- X,Y,Z ==> Vertex 1 {m}
    0,1.88860176,10.3632,  !- X,Y,Z ==> Vertex 2 {m}
    0,0.994050336,10.3632,  !- X,Y,Z ==> Vertex 3 {m}
    0,0.994050336,11.8872;  !- X,Y,Z ==> Vertex 4 {m}

  Construction:FfactorGroundFloor,
    EL1 Flr (G.E3.U3) SlabOnOrBelowGradeF073,  !- Name
    1.26343630645111,        !- F-Factor {W/m-K}
    381.8259202176,          !- Area {m2}
    46.396656;               !- PerimeterExposed {m}

  Construction:FfactorGroundFloor,
    EL1 Flr (G.W1.U1) SlabOnOrBelowGradeF073,  !- Name
    1.26343630645111,        !- F-Factor {W/m-K}
    381.825426560437,        !- Area {m2}
    46.396656;               !- PerimeterExposed {m}

  Construction:FfactorGroundFloor,
    EL1 Flr (G.W2.U2) SlabOnOrBelowGradeF073,  !- Name
    1.26343630645111,        !- F-Factor {W/m-K}
    763.702024116381,        !- Area {m2}
    92.799408;               !- PerimeterExposed {m}

  Construction:FfactorGroundFloor,
    EL2 Flr (G.N2.U2) SlabOnOrBelowGradeF073,  !- Name
    1.26343630645111,        !- F-Factor {W/m-K}
    58.0854895478593,        !- Area {m2}
    15.252192;               !- PerimeterExposed {m}

  Construction:FfactorGroundFloor,
    EL2 Flr (G.S1.U1) SlabOnOrBelowGradeF073,  !- Name
    1.26343630645111,        !- F-Factor {W/m-K}
    34.6969139791753,        !- Area {m2}
    12.28947504;             !- PerimeterExposed {m}

  Construction:FfactorGroundFloor,
    EL2 Flr (G.W3.U3) SlabOnOrBelowGradeF073,  !- Name
    1.26343630645111,        !- F-Factor {W/m-K}
    37.151459961597,         !- Area {m2}
    4.706112;                !- PerimeterExposed {m}

  Construction:FfactorGroundFloor,
    EL3 Flr (G.N1.U1) SlabOnOrBelowGradeF073,  !- Name
    1.26343630645111,        !- F-Factor {W/m-K}
    34.6970009542464,        !- Area {m2}
    12.28950552;             !- PerimeterExposed {m}

  Construction:FfactorGroundFloor,
    EL3 Flr (G.S2.U2) SlabOnOrBelowGradeF073,  !- Name
    1.26343630645111,        !- F-Factor {W/m-K}
    58.085637634558,         !- Area {m2}
    15.25222248;             !- PerimeterExposed {m}

  Construction:FfactorGroundFloor,
    EL3 Flr (G.W3.U3) SlabOnOrBelowGradeF073,  !- Name
    1.26343630645111,        !- F-Factor {W/m-K}
    37.15155408384,          !- Area {m2}
    4.706112;                !- PerimeterExposed {m}

