  Version,25.2;

  GlobalGeometryRules,
    UpperLeftCorner,         !- Starting Vertex Position
    Counterclockwise,        !- Vertex Entry Direction
    Relative,                !- Coordinate System
    Relative,                !- Daylighting Reference Point Coordinate System
    Relative;                !- Rectangular Surface Coordinate System

  Zone,
    Computer EL1 Core Spc (G.C8),  !- Name
    ,                        !- Direction of Relative North {deg}
    ,                        !- X Origin {m}
    ,                        !- Y Origin {m}
    ,                        !- Z Origin {m}
    ,                        !- Type
    1;                       !- Multiplier

  Zone,
    Conference EL1 Core Spc (G.C7),  !- Name
    ,                        !- Direction of Relative North {deg}
    ,                        !- X Origin {m}
    ,                        !- Y Origin {m}
    ,                        !- Z Origin {m}
    ,                        !- Type
    1;                       !- Multiplier

  Zone,
    Corridor EL1 Core Spc (G.C6),  !- Name
    ,                        !- Direction of Relative North {deg}
    ,                        !- X Origin {m}
    ,                        !- Y Origin {m}
    ,                        !- Z Origin {m}
    ,                        !- Type
    1;                       !- Multiplier

  Zone,
    Dining EL1 Core Spc (G.C9),  !- Name
    ,                        !- Direction of Relative North {deg}
    ,                        !- X Origin {m}
    ,                        !- Y Origin {m}
    ,                        !- Z Origin {m}
    ,                        !- Type
    1;                       !- Multiplier

  Zone,
    EL1 Core Plnm (G.C16),   !- Name
    ,                        !- Direction of Relative North {deg}
    ,                        !- X Origin {m}
    ,                        !- Y Origin {m}
    ,                        !- Z Origin {m}
    ,                        !- Type
    1;                       !- Multiplier

  Zone,
    EL1 Core Plnm (G.C17),   !- Name
    ,                        !- Direction of Relative North {deg}
    ,                        !- X Origin {m}
    ,                        !- Y Origin {m}
    ,                        !- Z Origin {m}
    ,                        !- Type
    1;                       !- Multiplier

  Zone,
    EL1 Core Plnm (G.C18),   !- Name
    ,                        !- Direction of Relative North {deg}
    ,                        !- X Origin {m}
    ,                        !- Y Origin {m}
    ,                        !- Z Origin {m}
    ,                        !- Type
    1;                       !- Multiplier

  Zone,
    EL1 Core Plnm (G.C19),   !- Name
    ,                        !- Direction of Relative North {deg}
    ,                        !- X Origin {m}
    ,                        !- Y Origin {m}
    ,                        !- Z Origin {m}
    ,                        !- Type
    1;                       !- Multiplier

  Zone,
    EL1 Core Plnm (G.C20),   !- Name
    ,                        !- Direction of Relative North {deg}
    ,                        !- X Origin {m}
    ,                        !- Y Origin {m}
    ,                        !- Z Origin {m}
    ,                        !- Type
    1;                       !- Multiplier

  Zone,
    EL1 Core Plnm (G.C21),   !- Name
    ,                        !- Direction of Relative North {deg}
    ,                        !- X Origin {m}
    ,                        !- Y Origin {m}
    ,                        !- Z Origin {m}
    ,                        !- Type
    1;                       !- Multiplier

  Zone,
    EL1 Core Plnm (G.C22),   !- Name
    ,                        !- Direction of Relative North {deg}
    ,                        !- X Origin {m}
    ,                        !- Y Origin {m}
    ,                        !- Z Origin {m}
    ,                        !- Type
    1;                       !- Multiplier

  Zone,
    EL1 East Perim Plnm (G.E13),  !- Name
    ,                        !- Direction of Relative North {deg}
    ,                        !- X Origin {m}
    ,                        !- Y Origin {m}
    ,                        !- Z Origin {m}
    ,                        !- Type
    1;                       !- Multiplier

  Zone,
    EL1 North Perim Plnm (G.N14),  !- Name
    ,                        !- Direction of Relative North {deg}
    ,                        !- X Origin {m}
    ,                        !- Y Origin {m}
    ,                        !- Z Origin {m}
    ,                        !- Type
    1;                       !- Multiplier

  Zone,
    EL1 South Perim Plnm (G.S12),  !- Name
    ,                        !- Direction of Relative North {deg}
    ,                        !- X Origin {m}
    ,                        !- Y Origin {m}
    ,                        !- Z Origin {m}
    ,                        !- Type
    1;                       !- Multiplier

  Zone,
    EL1 West Perim Plnm (G.W15),  !- Name
    ,                        !- Direction of Relative North {deg}
    ,                        !- X Origin {m}
    ,                        !- Y Origin {m}
    ,                        !- Z Origin {m}
    ,                        !- Type
    1;                       !- Multiplier

  Zone,
    Kitchen EL1 Core Spc (G.C10),  !- Name
    ,                        !- Direction of Relative North {deg}
    ,                        !- X Origin {m}
    ,                        !- Y Origin {m}
    ,                        !- Z Origin {m}
    ,                        !- Type
    1;                       !- Multiplier

  Zone,
    Lab EL1 Core Spc (G.C5), !- Name
    ,                        !- Direction of Relative North {deg}
    ,                        !- X Origin {m}
    ,                        !- Y Origin {m}
    ,                        !- Z Origin {m}
    ,                        !- Type
    1;                       !- Multiplier

  Zone,
    Office EL1 Core Spc (G.C11),  !- Name
    ,                        !- Direction of Relative North {deg}
    ,                        !- X Origin {m}
    ,                        !- Y Origin {m}
    ,                        !- Z Origin {m}
    ,                        !- Type
    1;                       !- Multiplier

  Zone,
    Office EL1 East Perim Spc (G.E2),  !- Name
    ,                        !- Direction of Relative North {deg}
    ,                        !- X Origin {m}
    ,                        !- Y Origin {m}
    ,                        !- Z Origin {m}
    ,                        !- Type
    1;                       !- Multiplier

  Zone,
    Office EL1 North Perim Spc (G.N3),  !- Name
    ,                        !- Direction of Relative North {deg}
    ,                        !- X Origin {m}
    ,                        !- Y Origin {m}
    ,                        !- Z Origin {m}
    ,                        !- Type
    1;                       !- Multiplier

  Zone,
    Office EL1 South Perim Spc (G.S1),  !- Name
    ,                        !- Direction of Relative North {deg}
    ,                        !- X Origin {m}
    ,                        !- Y Origin {m}
    ,                        !- Z Origin {m}
    ,                        !- Type
    1;                       !- Multiplier

  Zone,
    Office EL1 West Perim Spc (G.W4),  !- Name
    ,                        !- Direction of Relative North {deg}
    ,                        !- X Origin {m}
    ,                        !- Y Origin {m}
    ,                        !- Z Origin {m}
    ,                        !- Type
    1;                       !- Multiplier

  BuildingSurface:Detailed,
    EL1 Ceiling (G.C10.I36)-mirror,  !- Name
    Floor,                   !- Surface Type
    Interior Floor,          !- Construction Name
    EL1 Core Plnm (G.C21),   !- Zone Name
    ,                        !- Space Name
    Surface,                 !- Outside Boundary Condition
    EL1 Ceiling (G.C10.I36)-mirror Reversed,  !- Outside Boundary Condition Object
    NoSun,                   !- Sun Exposure
    NoWind,                  !- Wind Exposure
    ,                        !- View Factor to Ground
    ,                        !- Number of Vertices
    297.594528,51.06924,2.7432,  !- X,Y,Z ==> Vertex 1 {m}
    297.594528,4.572,2.7432,  !- X,Y,Z ==> Vertex 2 {m}
    293.600124,4.572,2.7432,  !- X,Y,Z ==> Vertex 3 {m}
    293.600124,51.06924,2.7432;  !- X,Y,Z ==> Vertex 4 {m}

  BuildingSurface:Detailed,
    EL1 Ceiling (G.C10.I36)-mirror Reversed,  !- Name
    Ceiling,                 !- Surface Type
    Radiant Interior Ceiling,!- Construction Name
    Kitchen EL1 Core Spc (G.C10),  !- Zone Name
    ,                        !- Space Name
    Surface,                 !- Outside Boundary Condition
    EL1 Ceiling (G.C10.I36)-mirror,  !- Outside Boundary Condition Object
    NoSun,                   !- Sun Exposure
    NoWind,                  !- Wind Exposure
    ,                        !- View Factor to Ground
    ,                        !- Number of Vertices
    297.594528,4.572,2.7432,  !- X,Y,Z ==> Vertex 1 {m}
    297.594528,51.06924,2.7432,  !- X,Y,Z ==> Vertex 2 {m}
    293.600124,51.06924,2.7432,  !- X,Y,Z ==> Vertex 3 {m}
    293.600124,4.572,2.7432;  !- X,Y,Z ==> Vertex 4 {m}

  BuildingSurface:Detailed,
    EL1 Ceiling (G.C11.I37)-mirror,  !- Name
    Floor,                   !- Surface Type
    Interior Floor,          !- Construction Name
    EL1 Core Plnm (G.C22),   !- Zone Name
    ,                        !- Space Name
    Surface,                 !- Outside Boundary Condition
    EL1 Ceiling (G.C11.I37)-mirror Reversed,  !- Outside Boundary Condition Object
    NoSun,                   !- Sun Exposure
    NoWind,                  !- Wind Exposure
    ,                        !- View Factor to Ground
    ,                        !- Number of Vertices
    329.318112,51.06924,2.7432,  !- X,Y,Z ==> Vertex 1 {m}
    329.318112,4.572,2.7432,  !- X,Y,Z ==> Vertex 2 {m}
    297.594528,4.572,2.7432,  !- X,Y,Z ==> Vertex 3 {m}
    297.594528,51.06924,2.7432;  !- X,Y,Z ==> Vertex 4 {m}

  BuildingSurface:Detailed,
    EL1 Ceiling (G.C11.I37)-mirror Reversed,  !- Name
    Ceiling,                 !- Surface Type
    Radiant Interior Ceiling,!- Construction Name
    Office EL1 Core Spc (G.C11),  !- Zone Name
    ,                        !- Space Name
    Surface,                 !- Outside Boundary Condition
    EL1 Ceiling (G.C11.I37)-mirror,  !- Outside Boundary Condition Object
    NoSun,                   !- Sun Exposure
    NoWind,                  !- Wind Exposure
    ,                        !- View Factor to Ground
    ,                        !- Number of Vertices
    329.318112,4.572,2.7432,  !- X,Y,Z ==> Vertex 1 {m}
    329.318112,51.06924,2.7432,  !- X,Y,Z ==> Vertex 2 {m}
    297.594528,51.06924,2.7432,  !- X,Y,Z ==> Vertex 3 {m}
    297.594528,4.572,2.7432;  !- X,Y,Z ==> Vertex 4 {m}

  BuildingSurface:Detailed,
    EL1 Ceiling (G.C5.I26)-mirror,  !- Name
    Floor,                   !- Surface Type
    Interior Floor,          !- Construction Name
    EL1 Core Plnm (G.C16),   !- Zone Name
    ,                        !- Space Name
    Surface,                 !- Outside Boundary Condition
    EL1 Ceiling (G.C5.I26)-mirror Reversed,  !- Outside Boundary Condition Object
    NoSun,                   !- Sun Exposure
    NoWind,                  !- Wind Exposure
    ,                        !- View Factor to Ground
    ,                        !- Number of Vertices
    185.717688,51.06924,2.7432,  !- X,Y,Z ==> Vertex 1 {m}
    185.717688,4.572,2.7432,  !- X,Y,Z ==> Vertex 2 {m}
    4.572,4.572,2.7432,  !- X,Y,Z ==> Vertex 3 {m}
    4.572,51.06924,2.7432;  !- X,Y,Z ==> Vertex 4 {m}

  BuildingSurface:Detailed,
    EL1 Ceiling (G.C5.I26)-mirror Reversed,  !- Name
    Ceiling,                 !- Surface Type
    Radiant Interior Ceiling,!- Construction Name
    Lab EL1 Core Spc (G.C5), !- Zone Name
    ,                        !- Space Name
    Surface,                 !- Outside Boundary Condition
    EL1 Ceiling (G.C5.I26)-mirror,  !- Outside Boundary Condition Object
    NoSun,                   !- Sun Exposure
    NoWind,                  !- Wind Exposure
    ,                        !- View Factor to Ground
    ,                        !- Number of Vertices
    185.717688,4.572,2.7432,  !- X,Y,Z ==> Vertex 1 {m}
    185.717688,51.06924,2.7432,  !- X,Y,Z ==> Vertex 2 {m}
    4.572,51.06924,2.7432,  !- X,Y,Z ==> Vertex 3 {m}
    4.572,4.572,2.7432;  !- X,Y,Z ==> Vertex 4 {m}

  BuildingSurface:Detailed,
    EL1 Ceiling (G.C6.I28)-mirror,  !- Name
    Floor,                   !- Surface Type
    Interior Floor,          !- Construction Name
    EL1 Core Plnm (G.C17),   !- Zone Name
    ,                        !- Space Name
    Surface,                 !- Outside Boundary Condition
    EL1 Ceiling (G.C6.I28)-mirror Reversed,  !- Outside Boundary Condition Object
    NoSun,                   !- Sun Exposure
    NoWind,                  !- Wind Exposure
    ,                        !- View Factor to Ground
    ,                        !- Number of Vertices
    265.6386864,51.06924,2.7432,  !- X,Y,Z ==> Vertex 1 {m}
    265.6386864,4.572,2.7432,  !- X,Y,Z ==> Vertex 2 {m}
    185.717688,4.572,2.7432,  !- X,Y,Z ==> Vertex 3 {m}
    185.717688,51.06924,2.7432;  !- X,Y,Z ==> Vertex 4 {m}

  BuildingSurface:Detailed,
    EL1 Ceiling (G.C6.I28)-mirror Reversed,  !- Name
    Ceiling,                 !- Surface Type
    Radiant Interior Ceiling,!- Construction Name
    Corridor EL1 Core Spc (G.C6),  !- Zone Name
    ,                        !- Space Name
    Surface,                 !- Outside Boundary Condition
    EL1 Ceiling (G.C6.I28)-mirror,  !- Outside Boundary Condition Object
    NoSun,                   !- Sun Exposure
    NoWind,                  !- Wind Exposure
    ,                        !- View Factor to Ground
    ,                        !- Number of Vertices
    265.6386864,4.572,2.7432,  !- X,Y,Z ==> Vertex 1 {m}
    265.6386864,51.06924,2.7432,  !- X,Y,Z ==> Vertex 2 {m}
    185.717688,51.06924,2.7432,  !- X,Y,Z ==> Vertex 3 {m}
    185.717688,4.572,2.7432;  !- X,Y,Z ==> Vertex 4 {m}

  BuildingSurface:Detailed,
    EL1 Ceiling (G.C7.I30)-mirror,  !- Name
    Floor,                   !- Surface Type
    Interior Floor,          !- Construction Name
    EL1 Core Plnm (G.C18),   !- Zone Name
    ,                        !- Space Name
    Surface,                 !- Outside Boundary Condition
    EL1 Ceiling (G.C7.I30)-mirror Reversed,  !- Outside Boundary Condition Object
    NoSun,                   !- Sun Exposure
    NoWind,                  !- Wind Exposure
    ,                        !- View Factor to Ground
    ,                        !- Number of Vertices
    273.628104,51.06924,2.7432,  !- X,Y,Z ==> Vertex 1 {m}
    273.628104,4.572,2.7432,  !- X,Y,Z ==> Vertex 2 {m}
    265.6386864,4.572,2.7432,  !- X,Y,Z ==> Vertex 3 {m}
    265.6386864,51.06924,2.7432;  !- X,Y,Z ==> Vertex 4 {m}

  BuildingSurface:Detailed,
    EL1 Ceiling (G.C7.I30)-mirror Reversed,  !- Name
    Ceiling,                 !- Surface Type
    Radiant Interior Ceiling,!- Construction Name
    Conference EL1 Core Spc (G.C7),  !- Zone Name
    ,                        !- Space Name
    Surface,                 !- Outside Boundary Condition
    EL1 Ceiling (G.C7.I30)-mirror,  !- Outside Boundary Condition Object
    NoSun,                   !- Sun Exposure
    NoWind,                  !- Wind Exposure
    ,                        !- View Factor to Ground
    ,                        !- Number of Vertices
    273.628104,4.572,2.7432,  !- X,Y,Z ==> Vertex 1 {m}
    273.628104,51.06924,2.7432,  !- X,Y,Z ==> Vertex 2 {m}
    265.6386864,51.06924,2.7432,  !- X,Y,Z ==> Vertex 3 {m}
    265.6386864,4.572,2.7432;  !- X,Y,Z ==> Vertex 4 {m}

  BuildingSurface:Detailed,
    EL1 Ceiling (G.C8.I32)-mirror,  !- Name
    Floor,                   !- Surface Type
    Interior Floor,          !- Construction Name
    EL1 Core Plnm (G.C19),   !- Zone Name
    ,                        !- Space Name
    Surface,                 !- Outside Boundary Condition
    EL1 Ceiling (G.C8.I32)-mirror Reversed,  !- Outside Boundary Condition Object
    NoSun,                   !- Sun Exposure
    NoWind,                  !- Wind Exposure
    ,                        !- View Factor to Ground
    ,                        !- Number of Vertices
    281.615388,51.06924,2.7432,  !- X,Y,Z ==> Vertex 1 {m}
    281.615388,4.572,2.7432,  !- X,Y,Z ==> Vertex 2 {m}
    273.628104,4.572,2.7432,  !- X,Y,Z ==> Vertex 3 {m}
    273.628104,51.06924,2.7432;  !- X,Y,Z ==> Vertex 4 {m}

  BuildingSurface:Detailed,
    EL1 Ceiling (G.C8.I32)-mirror Reversed,  !- Name
    Ceiling,                 !- Surface Type
    Radiant Interior Ceiling,!- Construction Name
    Computer EL1 Core Spc (G.C8),  !- Zone Name
    ,                        !- Space Name
    Surface,                 !- Outside Boundary Condition
    EL1 Ceiling (G.C8.I32)-mirror,  !- Outside Boundary Condition Object
    NoSun,                   !- Sun Exposure
    NoWind,                  !- Wind Exposure
    ,                        !- View Factor to Ground
    ,                        !- Number of Vertices
    281.615388,4.572,2.7432,  !- X,Y,Z ==> Vertex 1 {m}
    281.615388,51.06924,2.7432,  !- X,Y,Z ==> Vertex 2 {m}
    273.628104,51.06924,2.7432,  !- X,Y,Z ==> Vertex 3 {m}
    273.628104,4.572,2.7432;  !- X,Y,Z ==> Vertex 4 {m}

  BuildingSurface:Detailed,
    EL1 Ceiling (G.C9.I34)-mirror,  !- Name
    Floor,                   !- Surface Type
    Interior Floor,          !- Construction Name
    EL1 Core Plnm (G.C20),   !- Zone Name
    ,                        !- Space Name
    Surface,                 !- Outside Boundary Condition
    EL1 Ceiling (G.C9.I34)-mirror Reversed,  !- Outside Boundary Condition Object
    NoSun,                   !- Sun Exposure
    NoWind,                  !- Wind Exposure
    ,                        !- View Factor to Ground
    ,                        !- Number of Vertices
    293.600124,51.06924,2.7432,  !- X,Y,Z ==> Vertex 1 {m}
    293.600124,4.572,2.7432,  !- X,Y,Z ==> Vertex 2 {m}
    281.615388,4.572,2.7432,  !- X,Y,Z ==> Vertex 3 {m}
    281.615388,51.06924,2.7432;  !- X,Y,Z ==> Vertex 4 {m}

  BuildingSurface:Detailed,
    EL1 Ceiling (G.C9.I34)-mirror Reversed,  !- Name
    Ceiling,                 !- Surface Type
    Radiant Interior Ceiling,!- Construction Name
    Dining EL1 Core Spc (G.C9),  !- Zone Name
    ,                        !- Space Name
    Surface,                 !- Outside Boundary Condition
    EL1 Ceiling (G.C9.I34)-mirror,  !- Outside Boundary Condition Object
    NoSun,                   !- Sun Exposure
    NoWind,                  !- Wind Exposure
    ,                        !- View Factor to Ground
    ,                        !- Number of Vertices
    293.600124,4.572,2.7432,  !- X,Y,Z ==> Vertex 1 {m}
    293.600124,51.06924,2.7432,  !- X,Y,Z ==> Vertex 2 {m}
    281.615388,51.06924,2.7432,  !- X,Y,Z ==> Vertex 3 {m}
    281.615388,4.572,2.7432;  !- X,Y,Z ==> Vertex 4 {m}

  BuildingSurface:Detailed,
    EL1 Ceiling (G.E2.I12)-mirror,  !- Name
    Floor,                   !- Surface Type
    Interior Floor,          !- Construction Name
    EL1 East Perim Plnm (G.E13),  !- Zone Name
    ,                        !- Space Name
    Surface,                 !- Outside Boundary Condition
    EL1 Ceiling (G.E2.I12)-mirror Reversed,  !- Outside Boundary Condition Object
    NoSun,                   !- Sun Exposure
    NoWind,                  !- Wind Exposure
    ,                        !- View Factor to Ground
    ,                        !- Number of Vertices
    333.89316,55.64124,2.7432,  !- X,Y,Z ==> Vertex 1 {m}
    333.89316,0,2.7432,  !- X,Y,Z ==> Vertex 2 {m}
    329.32116,4.572,2.7432,  !- X,Y,Z ==> Vertex 3 {m}
    329.32116,51.06924,2.7432;  !- X,Y,Z ==> Vertex 4 {m}

  BuildingSurface:Detailed,
    EL1 Ceiling (G.E2.I12)-mirror Reversed,  !- Name
    Ceiling,                 !- Surface Type
    Radiant Interior Ceiling,!- Construction Name
    Office EL1 East Perim Spc (G.E2),  !- Zone Name
    ,                        !- Space Name
    Surface,                 !- Outside Boundary Condition
    EL1 Ceiling (G.E2.I12)-mirror,  !- Outside Boundary Condition Object
    NoSun,                   !- Sun Exposure
    NoWind,                  !- Wind Exposure
    ,                        !- View Factor to Ground
    ,                        !- Number of Vertices
    333.89316,0,2.7432,  !- X,Y,Z ==> Vertex 1 {m}
    333.89316,55.64124,2.7432,  !- X,Y,Z ==> Vertex 2 {m}
    329.32116,51.06924,2.7432,  !- X,Y,Z ==> Vertex 3 {m}
    329.32116,4.572,2.7432;  !- X,Y,Z ==> Vertex 4 {m}

  BuildingSurface:Detailed,
    EL1 Ceiling (G.N3.I22)-mirror,  !- Name
    Floor,                   !- Surface Type
    Interior Floor,          !- Construction Name
    EL1 North Perim Plnm (G.N14),  !- Zone Name
    ,                        !- Space Name
    Surface,                 !- Outside Boundary Condition
    EL1 Ceiling (G.N3.I22)-mirror Reversed,  !- Outside Boundary Condition Object
    NoSun,                   !- Sun Exposure
    NoWind,                  !- Wind Exposure
    ,                        !- View Factor to Ground
    ,                        !- Number of Vertices
    333.89316,55.64124,2.7432,  !- X,Y,Z ==> Vertex 1 {m}
    329.32116,51.06924,2.7432,  !- X,Y,Z ==> Vertex 2 {m}
    4.572,51.06924,2.7432,  !- X,Y,Z ==> Vertex 3 {m}
    0,55.64124,2.7432;  !- X,Y,Z ==> Vertex 4 {m}

  BuildingSurface:Detailed,
    EL1 Ceiling (G.N3.I22)-mirror Reversed,  !- Name
    Ceiling,                 !- Surface Type
    Radiant Interior Ceiling,!- Construction Name
    Office EL1 North Perim Spc (G.N3),  !- Zone Name
    ,                        !- Space Name
    Surface,                 !- Outside Boundary Condition
    EL1 Ceiling (G.N3.I22)-mirror,  !- Outside Boundary Condition Object
    NoSun,                   !- Sun Exposure
    NoWind,                  !- Wind Exposure
    ,                        !- View Factor to Ground
    ,                        !- Number of Vertices
    329.32116,51.06924,2.7432,  !- X,Y,Z ==> Vertex 1 {m}
    333.89316,55.64124,2.7432,  !- X,Y,Z ==> Vertex 2 {m}
    0,55.64124,2.7432,  !- X,Y,Z ==> Vertex 3 {m}
    4.572,51.06924,2.7432;  !- X,Y,Z ==> Vertex 4 {m}

  BuildingSurface:Detailed,
    EL1 Ceiling (G.S1.I10)-mirror,  !- Name
    Floor,                   !- Surface Type
    Interior Floor,          !- Construction Name
    EL1 South Perim Plnm (G.S12),  !- Zone Name
    ,                        !- Space Name
    Surface,                 !- Outside Boundary Condition
    EL1 Ceiling (G.S1.I10)-mirror Reversed,  !- Outside Boundary Condition Object
    NoSun,                   !- Sun Exposure
    NoWind,                  !- Wind Exposure
    ,                        !- View Factor to Ground
    ,                        !- Number of Vertices
    329.32116,4.572,2.7432,  !- X,Y,Z ==> Vertex 1 {m}
    333.89316,0,2.7432,  !- X,Y,Z ==> Vertex 2 {m}
    0,0,2.7432,  !- X,Y,Z ==> Vertex 3 {m}
    4.572,4.572,2.7432;  !- X,Y,Z ==> Vertex 4 {m}

  BuildingSurface:Detailed,
    EL1 Ceiling (G.S1.I10)-mirror Reversed,  !- Name
    Ceiling,                 !- Surface Type
    Radiant Interior Ceiling,!- Construction Name
    Office EL1 South Perim Spc (G.S1),  !- Zone Name
    ,                        !- Space Name
    Surface,                 !- Outside Boundary Condition
    EL1 Ceiling (G.S1.I10)-mirror,  !- Outside Boundary Condition Object
    NoSun,                   !- Sun Exposure
    NoWind,                  !- Wind Exposure
    ,                        !- View Factor to Ground
    ,                        !- Number of Vertices
    333.89316,0,2.7432,  !- X,Y,Z ==> Vertex 1 {m}
    329.32116,4.572,2.7432,  !- X,Y,Z ==> Vertex 2 {m}
    4.572,4.572,2.7432,  !- X,Y,Z ==> Vertex 3 {m}
    0,0,2.7432;  !- X,Y,Z ==> Vertex 4 {m}

  BuildingSurface:Detailed,
    EL1 Ceiling (G.W4.I24)-mirror,  !- Name
    Floor,                   !- Surface Type
    Interior Floor,          !- Construction Name
    EL1 West Perim Plnm (G.W15),  !- Zone Name
    ,                        !- Space Name
    Surface,                 !- Outside Boundary Condition
    EL1 Ceiling (G.W4.I24)-mirror Reversed,  !- Outside Boundary Condition Object
    NoSun,                   !- Sun Exposure
    NoWind,                  !- Wind Exposure
    ,                        !- View Factor to Ground
    ,                        !- Number of Vertices
    0,55.64124,2.7432,  !- X,Y,Z ==> Vertex 1 {m}
    4.572,51.06924,2.7432,  !- X,Y,Z ==> Vertex 2 {m}
    4.572,4.572,2.7432,  !- X,Y,Z ==> Vertex 3 {m}
    0,0,2.7432;  !- X,Y,Z ==> Vertex 4 {m}

  BuildingSurface:Detailed,
    EL1 Ceiling (G.W4.I24)-mirror Reversed,  !- Name
    Ceiling,                 !- Surface Type
    Radiant Interior Ceiling,!- Construction Name
    Office EL1 West Perim Spc (G.W4),  !- Zone Name
    ,                        !- Space Name
    Surface,                 !- Outside Boundary Condition
    EL1 Ceiling (G.W4.I24)-mirror,  !- Outside Boundary Condition Object
    NoSun,                   !- Sun Exposure
    NoWind,                  !- Wind Exposure
    ,                        !- View Factor to Ground
    ,                        !- Number of Vertices
    0,0,2.7432,  !- X,Y,Z ==> Vertex 1 {m}
    4.572,4.572,2.7432,  !- X,Y,Z ==> Vertex 2 {m}
    4.572,51.06924,2.7432,  !- X,Y,Z ==> Vertex 3 {m}
    0,55.64124,2.7432;  !- X,Y,Z ==> Vertex 4 {m}

  BuildingSurface:Detailed,
    EL1 East Wall (G.C10.I35),  !- Name
    Wall,                    !- Surface Type
    Interior Wall,           !- Construction Name
    Kitchen EL1 Core Spc (G.C10),  !- Zone Name
    ,                        !- Space Name
    Surface,                 !- Outside Boundary Condition
    EL1 East Wall (G.C10.I35) Reversed,  !- Outside Boundary Condition Object
    NoSun,                   !- Sun Exposure
    NoWind,                  !- Wind Exposure
    ,                        !- View Factor to Ground
    ,                        !- Number of Vertices
    297.594528,4.572,2.7432,  !- X,Y,Z ==> Vertex 1 {m}
    297.594528,4.572,0,  !- X,Y,Z ==> Vertex 2 {m}
    297.594528,51.06924,0,  !- X,Y,Z ==> Vertex 3 {m}
    297.594528,51.06924,2.7432;  !- X,Y,Z ==> Vertex 4 {m}

  BuildingSurface:Detailed,
    EL1 East Wall (G.C10.I35) Reversed,  !- Name
    Wall,                    !- Surface Type
    Interior Wall,           !- Construction Name
    Office EL1 Core Spc (G.C11),  !- Zone Name
    ,                        !- Space Name
    Surface,                 !- Outside Boundary Condition
    EL1 East Wall (G.C10.I35),  !- Outside Boundary Condition Object
    NoSun,                   !- Sun Exposure
    NoWind,                  !- Wind Exposure
    ,                        !- View Factor to Ground
    ,                        !- Number of Vertices
    297.594528,51.06924,2.7432,  !- X,Y,Z ==> Vertex 1 {m}
    297.594528,51.06924,0,  !- X,Y,Z ==> Vertex 2 {m}
    297.594528,4.572,0,  !- X,Y,Z ==> Vertex 3 {m}
    297.594528,4.572,2.7432;  !- X,Y,Z ==> Vertex 4 {m}

  BuildingSurface:Detailed,
    EL1 East Wall (G.C16.I58),  !- Name
    Wall,                    !- Surface Type
    Interior Wall,           !- Construction Name
    EL1 Core Plnm (G.C16),   !- Zone Name
    ,                        !- Space Name
    Surface,                 !- Outside Boundary Condition
    EL1 East Wall (G.C16.I58) Reversed,  !- Outside Boundary Condition Object
    NoSun,                   !- Sun Exposure
    NoWind,                  !- Wind Exposure
    ,                        !- View Factor to Ground
    ,                        !- Number of Vertices
    185.717688,4.572,4.572,  !- X,Y,Z ==> Vertex 1 {m}
    185.717688,4.572,2.7432,  !- X,Y,Z ==> Vertex 2 {m}
    185.717688,51.06924,2.7432,  !- X,Y,Z ==> Vertex 3 {m}
    185.717688,51.06924,4.572;  !- X,Y,Z ==> Vertex 4 {m}

  BuildingSurface:Detailed,
    EL1 East Wall (G.C16.I58) Reversed,  !- Name
    Wall,                    !- Surface Type
    Interior Wall,           !- Construction Name
    EL1 Core Plnm (G.C17),   !- Zone Name
    ,                        !- Space Name
    Surface,                 !- Outside Boundary Condition
    EL1 East Wall (G.C16.I58),  !- Outside Boundary Condition Object
    NoSun,                   !- Sun Exposure
    NoWind,                  !- Wind Exposure
    ,                        !- View Factor to Ground
    ,                        !- Number of Vertices
    185.717688,51.06924,4.572,  !- X,Y,Z ==> Vertex 1 {m}
    185.717688,51.06924,2.7432,  !- X,Y,Z ==> Vertex 2 {m}
    185.717688,4.572,2.7432,  !- X,Y,Z ==> Vertex 3 {m}
    185.717688,4.572,4.572;  !- X,Y,Z ==> Vertex 4 {m}

  BuildingSurface:Detailed,
    EL1 East Wall (G.C17.I59),  !- Name
    Wall,                    !- Surface Type
    Interior Wall,           !- Construction Name
    EL1 Core Plnm (G.C17),   !- Zone Name
    ,                        !- Space Name
    Surface,                 !- Outside Boundary Condition
    EL1 East Wall (G.C17.I59) Reversed,  !- Outside Boundary Condition Object
    NoSun,                   !- Sun Exposure
    NoWind,                  !- Wind Exposure
    ,                        !- View Factor to Ground
    ,                        !- Number of Vertices
    265.6386864,4.572,4.572,  !- X,Y,Z ==> Vertex 1 {m}
    265.6386864,4.572,2.7432,  !- X,Y,Z ==> Vertex 2 {m}
    265.6386864,51.06924,2.7432,  !- X,Y,Z ==> Vertex 3 {m}
    265.6386864,51.06924,4.572;  !- X,Y,Z ==> Vertex 4 {m}

  BuildingSurface:Detailed,
    EL1 East Wall (G.C17.I59) Reversed,  !- Name
    Wall,                    !- Surface Type
    Interior Wall,           !- Construction Name
    EL1 Core Plnm (G.C18),   !- Zone Name
    ,                        !- Space Name
    Surface,                 !- Outside Boundary Condition
    EL1 East Wall (G.C17.I59),  !- Outside Boundary Condition Object
    NoSun,                   !- Sun Exposure
    NoWind,                  !- Wind Exposure
    ,                        !- View Factor to Ground
    ,                        !- Number of Vertices
    265.6386864,51.06924,4.572,  !- X,Y,Z ==> Vertex 1 {m}
    265.6386864,51.06924,2.7432,  !- X,Y,Z ==> Vertex 2 {m}
    265.6386864,4.572,2.7432,  !- X,Y,Z ==> Vertex 3 {m}
    265.6386864,4.572,4.572;  !- X,Y,Z ==> Vertex 4 {m}

  BuildingSurface:Detailed,
    EL1 East Wall (G.C18.I60),  !- Name
    Wall,                    !- Surface Type
    Interior Wall,           !- Construction Name
    EL1 Core Plnm (G.C18),   !- Zone Name
    ,                        !- Space Name
    Surface,                 !- Outside Boundary Condition
    EL1 East Wall (G.C18.I60) Reversed,  !- Outside Boundary Condition Object
    NoSun,                   !- Sun Exposure
    NoWind,                  !- Wind Exposure
    ,                        !- View Factor to Ground
    ,                        !- Number of Vertices
    273.628104,4.572,4.572,  !- X,Y,Z ==> Vertex 1 {m}
    273.628104,4.572,2.7432,  !- X,Y,Z ==> Vertex 2 {m}
    273.628104,51.06924,2.7432,  !- X,Y,Z ==> Vertex 3 {m}
    273.628104,51.06924,4.572;  !- X,Y,Z ==> Vertex 4 {m}

  BuildingSurface:Detailed,
    EL1 East Wall (G.C18.I60) Reversed,  !- Name
    Wall,                    !- Surface Type
    Interior Wall,           !- Construction Name
    EL1 Core Plnm (G.C19),   !- Zone Name
    ,                        !- Space Name
    Surface,                 !- Outside Boundary Condition
    EL1 East Wall (G.C18.I60),  !- Outside Boundary Condition Object
    NoSun,                   !- Sun Exposure
    NoWind,                  !- Wind Exposure
    ,                        !- View Factor to Ground
    ,                        !- Number of Vertices
    273.628104,51.06924,4.572,  !- X,Y,Z ==> Vertex 1 {m}
    273.628104,51.06924,2.7432,  !- X,Y,Z ==> Vertex 2 {m}
    273.628104,4.572,2.7432,  !- X,Y,Z ==> Vertex 3 {m}
    273.628104,4.572,4.572;  !- X,Y,Z ==> Vertex 4 {m}

  BuildingSurface:Detailed,
    EL1 East Wall (G.C19.I61),  !- Name
    Wall,                    !- Surface Type
    Interior Wall,           !- Construction Name
    EL1 Core Plnm (G.C19),   !- Zone Name
    ,                        !- Space Name
    Surface,                 !- Outside Boundary Condition
    EL1 East Wall (G.C19.I61) Reversed,  !- Outside Boundary Condition Object
    NoSun,                   !- Sun Exposure
    NoWind,                  !- Wind Exposure
    ,                        !- View Factor to Ground
    ,                        !- Number of Vertices
    281.615388,4.572,4.572,  !- X,Y,Z ==> Vertex 1 {m}
    281.615388,4.572,2.7432,  !- X,Y,Z ==> Vertex 2 {m}
    281.615388,51.06924,2.7432,  !- X,Y,Z ==> Vertex 3 {m}
    281.615388,51.06924,4.572;  !- X,Y,Z ==> Vertex 4 {m}

  BuildingSurface:Detailed,
    EL1 East Wall (G.C19.I61) Reversed,  !- Name
    Wall,                    !- Surface Type
    Interior Wall,           !- Construction Name
    EL1 Core Plnm (G.C20),   !- Zone Name
    ,                        !- Space Name
    Surface,                 !- Outside Boundary Condition
    EL1 East Wall (G.C19.I61),  !- Outside Boundary Condition Object
    NoSun,                   !- Sun Exposure
    NoWind,                  !- Wind Exposure
    ,                        !- View Factor to Ground
    ,                        !- Number of Vertices
    281.615388,51.06924,4.572,  !- X,Y,Z ==> Vertex 1 {m}
    281.615388,51.06924,2.7432,  !- X,Y,Z ==> Vertex 2 {m}
    281.615388,4.572,2.7432,  !- X,Y,Z ==> Vertex 3 {m}
    281.615388,4.572,4.572;  !- X,Y,Z ==> Vertex 4 {m}

  BuildingSurface:Detailed,
    EL1 East Wall (G.C20.I62),  !- Name
    Wall,                    !- Surface Type
    Interior Wall,           !- Construction Name
    EL1 Core Plnm (G.C20),   !- Zone Name
    ,                        !- Space Name
    Surface,                 !- Outside Boundary Condition
    EL1 East Wall (G.C20.I62) Reversed,  !- Outside Boundary Condition Object
    NoSun,                   !- Sun Exposure
    NoWind,                  !- Wind Exposure
    ,                        !- View Factor to Ground
    ,                        !- Number of Vertices
    293.600124,4.572,4.572,  !- X,Y,Z ==> Vertex 1 {m}
    293.600124,4.572,2.7432,  !- X,Y,Z ==> Vertex 2 {m}
    293.600124,51.06924,2.7432,  !- X,Y,Z ==> Vertex 3 {m}
    293.600124,51.06924,4.572;  !- X,Y,Z ==> Vertex 4 {m}

  BuildingSurface:Detailed,
    EL1 East Wall (G.C20.I62) Reversed,  !- Name
    Wall,                    !- Surface Type
    Interior Wall,           !- Construction Name
    EL1 Core Plnm (G.C21),   !- Zone Name
    ,                        !- Space Name
    Surface,                 !- Outside Boundary Condition
    EL1 East Wall (G.C20.I62),  !- Outside Boundary Condition Object
    NoSun,                   !- Sun Exposure
    NoWind,                  !- Wind Exposure
    ,                        !- View Factor to Ground
    ,                        !- Number of Vertices
    293.600124,51.06924,4.572,  !- X,Y,Z ==> Vertex 1 {m}
    293.600124,51.06924,2.7432,  !- X,Y,Z ==> Vertex 2 {m}
    293.600124,4.572,2.7432,  !- X,Y,Z ==> Vertex 3 {m}
    293.600124,4.572,4.572;  !- X,Y,Z ==> Vertex 4 {m}

  BuildingSurface:Detailed,
    EL1 East Wall (G.C21.I63),  !- Name
    Wall,                    !- Surface Type
    Interior Wall,           !- Construction Name
    EL1 Core Plnm (G.C21),   !- Zone Name
    ,                        !- Space Name
    Surface,                 !- Outside Boundary Condition
    EL1 East Wall (G.C21.I63) Reversed,  !- Outside Boundary Condition Object
    NoSun,                   !- Sun Exposure
    NoWind,                  !- Wind Exposure
    ,                        !- View Factor to Ground
    ,                        !- Number of Vertices
    297.594528,4.572,4.572,  !- X,Y,Z ==> Vertex 1 {m}
    297.594528,4.572,2.7432,  !- X,Y,Z ==> Vertex 2 {m}
    297.594528,51.06924,2.7432,  !- X,Y,Z ==> Vertex 3 {m}
    297.594528,51.06924,4.572;  !- X,Y,Z ==> Vertex 4 {m}

  BuildingSurface:Detailed,
    EL1 East Wall (G.C21.I63) Reversed,  !- Name
    Wall,                    !- Surface Type
    Interior Wall,           !- Construction Name
    EL1 Core Plnm (G.C22),   !- Zone Name
    ,                        !- Space Name
    Surface,                 !- Outside Boundary Condition
    EL1 East Wall (G.C21.I63),  !- Outside Boundary Condition Object
    NoSun,                   !- Sun Exposure
    NoWind,                  !- Wind Exposure
    ,                        !- View Factor to Ground
    ,                        !- Number of Vertices
    297.594528,51.06924,4.572,  !- X,Y,Z ==> Vertex 1 {m}
    297.594528,51.06924,2.7432,  !- X,Y,Z ==> Vertex 2 {m}
    297.594528,4.572,2.7432,  !- X,Y,Z ==> Vertex 3 {m}
    297.594528,4.572,4.572;  !- X,Y,Z ==> Vertex 4 {m}

  BuildingSurface:Detailed,
    EL1 East Wall (G.C5.I25),!- Name
    Wall,                    !- Surface Type
    Interior Wall,           !- Construction Name
    Lab EL1 Core Spc (G.C5), !- Zone Name
    ,                        !- Space Name
    Surface,                 !- Outside Boundary Condition
    EL1 East Wall (G.C5.I25) Reversed,  !- Outside Boundary Condition Object
    NoSun,                   !- Sun Exposure
    NoWind,                  !- Wind Exposure
    ,                        !- View Factor to Ground
    ,                        !- Number of Vertices
    185.717688,4.572,2.7432,  !- X,Y,Z ==> Vertex 1 {m}
    185.717688,4.572,0,  !- X,Y,Z ==> Vertex 2 {m}
    185.717688,51.06924,0,  !- X,Y,Z ==> Vertex 3 {m}
    185.717688,51.06924,2.7432;  !- X,Y,Z ==> Vertex 4 {m}

  BuildingSurface:Detailed,
    EL1 East Wall (G.C5.I25) Reversed,  !- Name
    Wall,                    !- Surface Type
    Interior Wall,           !- Construction Name
    Corridor EL1 Core Spc (G.C6),  !- Zone Name
    ,                        !- Space Name
    Surface,                 !- Outside Boundary Condition
    EL1 East Wall (G.C5.I25),!- Outside Boundary Condition Object
    NoSun,                   !- Sun Exposure
    NoWind,                  !- Wind Exposure
    ,                        !- View Factor to Ground
    ,                        !- Number of Vertices
    185.717688,51.06924,2.7432,  !- X,Y,Z ==> Vertex 1 {m}
    185.717688,51.06924,0,  !- X,Y,Z ==> Vertex 2 {m}
    185.717688,4.572,0,  !- X,Y,Z ==> Vertex 3 {m}
    185.717688,4.572,2.7432;  !- X,Y,Z ==> Vertex 4 {m}

  BuildingSurface:Detailed,
    EL1 East Wall (G.C6.I27),!- Name
    Wall,                    !- Surface Type
    Interior Wall,           !- Construction Name
    Corridor EL1 Core Spc (G.C6),  !- Zone Name
    ,                        !- Space Name
    Surface,                 !- Outside Boundary Condition
    EL1 East Wall (G.C6.I27) Reversed,  !- Outside Boundary Condition Object
    NoSun,                   !- Sun Exposure
    NoWind,                  !- Wind Exposure
    ,                        !- View Factor to Ground
    ,                        !- Number of Vertices
    265.6386864,4.572,2.7432,  !- X,Y,Z ==> Vertex 1 {m}
    265.6386864,4.572,0,  !- X,Y,Z ==> Vertex 2 {m}
    265.6386864,51.06924,0,  !- X,Y,Z ==> Vertex 3 {m}
    265.6386864,51.06924,2.7432;  !- X,Y,Z ==> Vertex 4 {m}

  BuildingSurface:Detailed,
    EL1 East Wall (G.C6.I27) Reversed,  !- Name
    Wall,                    !- Surface Type
    Interior Wall,           !- Construction Name
    Conference EL1 Core Spc (G.C7),  !- Zone Name
    ,                        !- Space Name
    Surface,                 !- Outside Boundary Condition
    EL1 East Wall (G.C6.I27),!- Outside Boundary Condition Object
    NoSun,                   !- Sun Exposure
    NoWind,                  !- Wind Exposure
    ,                        !- View Factor to Ground
    ,                        !- Number of Vertices
    265.6386864,51.06924,2.7432,  !- X,Y,Z ==> Vertex 1 {m}
    265.6386864,51.06924,0,  !- X,Y,Z ==> Vertex 2 {m}
    265.6386864,4.572,0,  !- X,Y,Z ==> Vertex 3 {m}
    265.6386864,4.572,2.7432;  !- X,Y,Z ==> Vertex 4 {m}

  BuildingSurface:Detailed,
    EL1 East Wall (G.C7.I29),!- Name
    Wall,                    !- Surface Type
    Interior Wall,           !- Construction Name
    Conference EL1 Core Spc (G.C7),  !- Zone Name
    ,                        !- Space Name
    Surface,                 !- Outside Boundary Condition
    EL1 East Wall (G.C7.I29) Reversed,  !- Outside Boundary Condition Object
    NoSun,                   !- Sun Exposure
    NoWind,                  !- Wind Exposure
    ,                        !- View Factor to Ground
    ,                        !- Number of Vertices
    273.628104,4.572,2.7432,  !- X,Y,Z ==> Vertex 1 {m}
    273.628104,4.572,0,  !- X,Y,Z ==> Vertex 2 {m}
    273.628104,51.06924,0,  !- X,Y,Z ==> Vertex 3 {m}
    273.628104,51.06924,2.7432;  !- X,Y,Z ==> Vertex 4 {m}

  BuildingSurface:Detailed,
    EL1 East Wall (G.C7.I29) Reversed,  !- Name
    Wall,                    !- Surface Type
    Interior Wall,           !- Construction Name
    Computer EL1 Core Spc (G.C8),  !- Zone Name
    ,                        !- Space Name
    Surface,                 !- Outside Boundary Condition
    EL1 East Wall (G.C7.I29),!- Outside Boundary Condition Object
    NoSun,                   !- Sun Exposure
    NoWind,                  !- Wind Exposure
    ,                        !- View Factor to Ground
    ,                        !- Number of Vertices
    273.628104,51.06924,2.7432,  !- X,Y,Z ==> Vertex 1 {m}
    273.628104,51.06924,0,  !- X,Y,Z ==> Vertex 2 {m}
    273.628104,4.572,0,  !- X,Y,Z ==> Vertex 3 {m}
    273.628104,4.572,2.7432;  !- X,Y,Z ==> Vertex 4 {m}

  BuildingSurface:Detailed,
    EL1 East Wall (G.C8.I31),!- Name
    Wall,                    !- Surface Type
    Interior Wall,           !- Construction Name
    Computer EL1 Core Spc (G.C8),  !- Zone Name
    ,                        !- Space Name
    Surface,                 !- Outside Boundary Condition
    EL1 East Wall (G.C8.I31) Reversed,  !- Outside Boundary Condition Object
    NoSun,                   !- Sun Exposure
    NoWind,                  !- Wind Exposure
    ,                        !- View Factor to Ground
    ,                        !- Number of Vertices
    281.615388,4.572,2.7432,  !- X,Y,Z ==> Vertex 1 {m}
    281.615388,4.572,0,  !- X,Y,Z ==> Vertex 2 {m}
    281.615388,51.06924,0,  !- X,Y,Z ==> Vertex 3 {m}
    281.615388,51.06924,2.7432;  !- X,Y,Z ==> Vertex 4 {m}

  BuildingSurface:Detailed,
    EL1 East Wall (G.C8.I31) Reversed,  !- Name
    Wall,                    !- Surface Type
    Interior Wall,           !- Construction Name
    Dining EL1 Core Spc (G.C9),  !- Zone Name
    ,                        !- Space Name
    Surface,                 !- Outside Boundary Condition
    EL1 East Wall (G.C8.I31),!- Outside Boundary Condition Object
    NoSun,                   !- Sun Exposure
    NoWind,                  !- Wind Exposure
    ,                        !- View Factor to Ground
    ,                        !- Number of Vertices
    281.615388,51.06924,2.7432,  !- X,Y,Z ==> Vertex 1 {m}
    281.615388,51.06924,0,  !- X,Y,Z ==> Vertex 2 {m}
    281.615388,4.572,0,  !- X,Y,Z ==> Vertex 3 {m}
    281.615388,4.572,2.7432;  !- X,Y,Z ==> Vertex 4 {m}

  BuildingSurface:Detailed,
    EL1 East Wall (G.C9.I33)-mirror,  !- Name
    Wall,                    !- Surface Type
    Interior Wall,           !- Construction Name
    Kitchen EL1 Core Spc (G.C10),  !- Zone Name
    ,                        !- Space Name
    Surface,                 !- Outside Boundary Condition
    EL1 East Wall (G.C9.I33)-mirror Reversed,  !- Outside Boundary Condition Object
    NoSun,                   !- Sun Exposure
    NoWind,                  !- Wind Exposure
    ,                        !- View Factor to Ground
    ,                        !- Number of Vertices
    293.600124,51.06924,2.7432,  !- X,Y,Z ==> Vertex 1 {m}
    293.600124,51.06924,0,  !- X,Y,Z ==> Vertex 2 {m}
    293.600124,4.572,0,  !- X,Y,Z ==> Vertex 3 {m}
    293.600124,4.572,2.7432;  !- X,Y,Z ==> Vertex 4 {m}

  BuildingSurface:Detailed,
    EL1 East Wall (G.C9.I33)-mirror Reversed,  !- Name
    Wall,                    !- Surface Type
    Interior Wall,           !- Construction Name
    Dining EL1 Core Spc (G.C9),  !- Zone Name
    ,                        !- Space Name
    Surface,                 !- Outside Boundary Condition
    EL1 East Wall (G.C9.I33)-mirror,  !- Outside Boundary Condition Object
    NoSun,                   !- Sun Exposure
    NoWind,                  !- Wind Exposure
    ,                        !- View Factor to Ground
    ,                        !- Number of Vertices
    293.600124,4.572,2.7432,  !- X,Y,Z ==> Vertex 1 {m}
    293.600124,4.572,0,  !- X,Y,Z ==> Vertex 2 {m}
    293.600124,51.06924,0,  !- X,Y,Z ==> Vertex 3 {m}
    293.600124,51.06924,2.7432;  !- X,Y,Z ==> Vertex 4 {m}

  BuildingSurface:Detailed,
    EL1 East Wall (G.E13.E7),!- Name
    Wall,                    !- Surface Type
    Exterior Wall,           !- Construction Name
    EL1 East Perim Plnm (G.E13),  !- Zone Name
    ,                        !- Space Name
    Outdoors,                !- Outside Boundary Condition
    ,                        !- Outside Boundary Condition Object
    SunExposed,              !- Sun Exposure
    WindExposed,             !- Wind Exposure
    ,                        !- View Factor to Ground
    ,                        !- Number of Vertices
    333.89316,0,4.572,  !- X,Y,Z ==> Vertex 1 {m}
    333.89316,0,2.7432,  !- X,Y,Z ==> Vertex 2 {m}
    333.89316,55.64124,2.7432,  !- X,Y,Z ==> Vertex 3 {m}
    333.89316,55.64124,4.572;  !- X,Y,Z ==> Vertex 4 {m}

  BuildingSurface:Detailed,
    EL1 East Wall (G.E2.E2), !- Name
    Wall,                    !- Surface Type
    Exterior Wall,           !- Construction Name
    Office EL1 East Perim Spc (G.E2),  !- Zone Name
    ,                        !- Space Name
    Outdoors,                !- Outside Boundary Condition
    ,                        !- Outside Boundary Condition Object
    SunExposed,              !- Sun Exposure
    WindExposed,             !- Wind Exposure
    ,                        !- View Factor to Ground
    ,                        !- Number of Vertices
    333.89316,0,2.7432,  !- X,Y,Z ==> Vertex 1 {m}
    333.89316,0,0,  !- X,Y,Z ==> Vertex 2 {m}
    333.89316,55.64124,0,  !- X,Y,Z ==> Vertex 3 {m}
    333.89316,55.64124,2.7432;  !- X,Y,Z ==> Vertex 4 {m}

  BuildingSurface:Detailed,
    EL1 East Wall (G.W15.I57)-mirror,  !- Name
    Wall,                    !- Surface Type
    Interior Wall,           !- Construction Name
    EL1 Core Plnm (G.C16),   !- Zone Name
    ,                        !- Space Name
    Surface,                 !- Outside Boundary Condition
    EL1 East Wall (G.W15.I57)-mirror Reversed,  !- Outside Boundary Condition Object
    NoSun,                   !- Sun Exposure
    NoWind,                  !- Wind Exposure
    ,                        !- View Factor to Ground
    ,                        !- Number of Vertices
    4.572,51.06924,4.572,  !- X,Y,Z ==> Vertex 1 {m}
    4.572,51.06924,2.7432,  !- X,Y,Z ==> Vertex 2 {m}
    4.572,4.572,2.7432,  !- X,Y,Z ==> Vertex 3 {m}
    4.572,4.572,4.572;  !- X,Y,Z ==> Vertex 4 {m}

  BuildingSurface:Detailed,
    EL1 East Wall (G.W15.I57)-mirror Reversed,  !- Name
    Wall,                    !- Surface Type
    Interior Wall,           !- Construction Name
    EL1 West Perim Plnm (G.W15),  !- Zone Name
    ,                        !- Space Name
    Surface,                 !- Outside Boundary Condition
    EL1 East Wall (G.W15.I57)-mirror,  !- Outside Boundary Condition Object
    NoSun,                   !- Sun Exposure
    NoWind,                  !- Wind Exposure
    ,                        !- View Factor to Ground
    ,                        !- Number of Vertices
    4.572,4.572,4.572,  !- X,Y,Z ==> Vertex 1 {m}
    4.572,4.572,2.7432,  !- X,Y,Z ==> Vertex 2 {m}
    4.572,51.06924,2.7432,  !- X,Y,Z ==> Vertex 3 {m}
    4.572,51.06924,4.572;  !- X,Y,Z ==> Vertex 4 {m}

  BuildingSurface:Detailed,
    EL1 East Wall (G.W4.I23)-mirror,  !- Name
    Wall,                    !- Surface Type
    Interior Wall,           !- Construction Name
    Lab EL1 Core Spc (G.C5), !- Zone Name
    ,                        !- Space Name
    Surface,                 !- Outside Boundary Condition
    EL1 East Wall (G.W4.I23)-mirror Reversed,  !- Outside Boundary Condition Object
    NoSun,                   !- Sun Exposure
    NoWind,                  !- Wind Exposure
    ,                        !- View Factor to Ground
    ,                        !- Number of Vertices
    4.572,51.06924,2.7432,  !- X,Y,Z ==> Vertex 1 {m}
    4.572,51.06924,0,  !- X,Y,Z ==> Vertex 2 {m}
    4.572,4.572,0,  !- X,Y,Z ==> Vertex 3 {m}
    4.572,4.572,2.7432;  !- X,Y,Z ==> Vertex 4 {m}

  BuildingSurface:Detailed,
    EL1 East Wall (G.W4.I23)-mirror Reversed,  !- Name
    Wall,                    !- Surface Type
    Interior Wall,           !- Construction Name
    Office EL1 West Perim Spc (G.W4),  !- Zone Name
    ,                        !- Space Name
    Surface,                 !- Outside Boundary Condition
    EL1 East Wall (G.W4.I23)-mirror,  !- Outside Boundary Condition Object
    NoSun,                   !- Sun Exposure
    NoWind,                  !- Wind Exposure
    ,                        !- View Factor to Ground
    ,                        !- Number of Vertices
    4.572,4.572,2.7432,  !- X,Y,Z ==> Vertex 1 {m}
    4.572,4.572,0,  !- X,Y,Z ==> Vertex 2 {m}
    4.572,51.06924,0,  !- X,Y,Z ==> Vertex 3 {m}
    4.572,51.06924,2.7432;  !- X,Y,Z ==> Vertex 4 {m}

  BuildingSurface:Detailed,
    EL1 Flr (G.C10.U10),     !- Name
    Floor,                   !- Surface Type
    EL1 Flr (G.C10.U10) SlabOnOrBelowGradeF073,  !- Construction Name
    Kitchen EL1 Core Spc (G.C10),  !- Zone Name
    ,                        !- Space Name
    GroundFCfactorMethod,    !- Outside Boundary Condition
    ,                        !- Outside Boundary Condition Object
    NoSun,                   !- Sun Exposure
    NoWind,                  !- Wind Exposure
    ,                        !- View Factor to Ground
    ,                        !- Number of Vertices
    297.594528,51.06924,0,  !- X,Y,Z ==> Vertex 1 {m}
    297.594528,4.572,0,  !- X,Y,Z ==> Vertex 2 {m}
    293.5986,4.572,0,  !- X,Y,Z ==> Vertex 3 {m}
    293.5986,51.06924,0;  !- X,Y,Z ==> Vertex 4 {m}

  BuildingSurface:Detailed,
    EL1 Flr (G.C11.U11),     !- Name
    Floor,                   !- Surface Type
    EL1 Flr (G.C11.U11) SlabOnOrBelowGradeF073,  !- Construction Name
    Office EL1 Core Spc (G.C11),  !- Zone Name
    ,                        !- Space Name
    GroundFCfactorMethod,    !- Outside Boundary Condition
    ,                        !- Outside Boundary Condition Object
    NoSun,                   !- Sun Exposure
    NoWind,                  !- Wind Exposure
    ,                        !- View Factor to Ground
    ,                        !- Number of Vertices
    329.318112,51.06924,0,  !- X,Y,Z ==> Vertex 1 {m}
    329.318112,4.572,0,  !- X,Y,Z ==> Vertex 2 {m}
    297.593004,4.572,0,  !- X,Y,Z ==> Vertex 3 {m}
    297.593004,51.06924,0;  !- X,Y,Z ==> Vertex 4 {m}

  BuildingSurface:Detailed,
    EL1 Flr (G.C5.U5),       !- Name
    Floor,                   !- Surface Type
    EL1 Flr (G.C5.U5) SlabOnOrBelowGradeF073,  !- Construction Name
    Lab EL1 Core Spc (G.C5), !- Zone Name
    ,                        !- Space Name
    GroundFCfactorMethod,    !- Outside Boundary Condition
    ,                        !- Outside Boundary Condition Object
    NoSun,                   !- Sun Exposure
    NoWind,                  !- Wind Exposure
    ,                        !- View Factor to Ground
    ,                        !- Number of Vertices
    185.717688,51.06924,0,  !- X,Y,Z ==> Vertex 1 {m}
    185.717688,4.572,0,  !- X,Y,Z ==> Vertex 2 {m}
    4.572,4.572,0,  !- X,Y,Z ==> Vertex 3 {m}
    4.572,51.06924,0;  !- X,Y,Z ==> Vertex 4 {m}

  BuildingSurface:Detailed,
    EL1 Flr (G.C6.U6),       !- Name
    Floor,                   !- Surface Type
    EL1 Flr (G.C6.U6) SlabOnOrBelowGradeF073,  !- Construction Name
    Corridor EL1 Core Spc (G.C6),  !- Zone Name
    ,                        !- Space Name
    GroundFCfactorMethod,    !- Outside Boundary Condition
    ,                        !- Outside Boundary Condition Object
    NoSun,                   !- Sun Exposure
    NoWind,                  !- Wind Exposure
    ,                        !- View Factor to Ground
    ,                        !- Number of Vertices
    265.6386864,51.06924,0,  !- X,Y,Z ==> Vertex 1 {m}
    265.6386864,4.572,0,  !- X,Y,Z ==> Vertex 2 {m}
    185.7170784,4.572,0,  !- X,Y,Z ==> Vertex 3 {m}
    185.7170784,51.06924,0;  !- X,Y,Z ==> Vertex 4 {m}

  BuildingSurface:Detailed,
    EL1 Flr (G.C7.U7),       !- Name
    Floor,                   !- Surface Type
    EL1 Flr (G.C7.U7) SlabOnOrBelowGradeF073,  !- Construction Name
    Conference EL1 Core Spc (G.C7),  !- Zone Name
    ,                        !- Space Name
    GroundFCfactorMethod,    !- Outside Boundary Condition
    ,                        !- Outside Boundary Condition Object
    NoSun,                   !- Sun Exposure
    NoWind,                  !- Wind Exposure
    ,                        !- View Factor to Ground
    ,                        !- Number of Vertices
    273.628104,51.06924,0,  !- X,Y,Z ==> Vertex 1 {m}
    273.628104,4.572,0,  !- X,Y,Z ==> Vertex 2 {m}
    265.6386864,4.572,0,  !- X,Y,Z ==> Vertex 3 {m}
    265.6386864,51.06924,0;  !- X,Y,Z ==> Vertex 4 {m}

  BuildingSurface:Detailed,
    EL1 Flr (G.C8.U8),       !- Name
    Floor,                   !- Surface Type
    EL1 Flr (G.C8.U8) SlabOnOrBelowGradeF073,  !- Construction Name
    Computer EL1 Core Spc (G.C8),  !- Zone Name
    ,                        !- Space Name
    GroundFCfactorMethod,    !- Outside Boundary Condition
    ,                        !- Outside Boundary Condition Object
    NoSun,                   !- Sun Exposure
    NoWind,                  !- Wind Exposure
    ,                        !- View Factor to Ground
    ,                        !- Number of Vertices
    281.615388,51.06924,0,  !- X,Y,Z ==> Vertex 1 {m}
    281.615388,4.572,0,  !- X,Y,Z ==> Vertex 2 {m}
    273.628104,4.572,0,  !- X,Y,Z ==> Vertex 3 {m}
    273.628104,51.06924,0;  !- X,Y,Z ==> Vertex 4 {m}

  BuildingSurface:Detailed,
    EL1 Flr (G.C9.U9),       !- Name
    Floor,                   !- Surface Type
    EL1 Flr (G.C9.U9) SlabOnOrBelowGradeF073,  !- Construction Name
    Dining EL1 Core Spc (G.C9),  !- Zone Name
    ,                        !- Space Name
    GroundFCfactorMethod,    !- Outside Boundary Condition
    ,                        !- Outside Boundary Condition Object
    NoSun,                   !- Sun Exposure
    NoWind,                  !- Wind Exposure
    ,                        !- View Factor to Ground
    ,                        !- Number of Vertices
    293.600124,51.06924,0,  !- X,Y,Z ==> Vertex 1 {m}
    293.600124,4.572,0,  !- X,Y,Z ==> Vertex 2 {m}
    281.615388,4.572,0,  !- X,Y,Z ==> Vertex 3 {m}
    281.615388,51.06924,0;  !- X,Y,Z ==> Vertex 4 {m}

  BuildingSurface:Detailed,
    EL1 Flr (G.E2.U2),       !- Name
    Floor,                   !- Surface Type
    EL1 Flr (G.E2.U2) SlabOnOrBelowGradeF073,  !- Construction Name
    Office EL1 East Perim Spc (G.E2),  !- Zone Name
    ,                        !- Space Name
    GroundFCfactorMethod,    !- Outside Boundary Condition
    ,                        !- Outside Boundary Condition Object
    NoSun,                   !- Sun Exposure
    NoWind,                  !- Wind Exposure
    ,                        !- View Factor to Ground
    ,                        !- Number of Vertices
    333.89316,55.64124,0,  !- X,Y,Z ==> Vertex 1 {m}
    333.89316,0,0,  !- X,Y,Z ==> Vertex 2 {m}
    329.32116,4.572,0,  !- X,Y,Z ==> Vertex 3 {m}
    329.32116,51.06924,0;  !- X,Y,Z ==> Vertex 4 {m}

  BuildingSurface:Detailed,
    EL1 Flr (G.N3.U3),       !- Name
    Floor,                   !- Surface Type
    EL1 Flr (G.N3.U3) SlabOnOrBelowGradeF073,  !- Construction Name
    Office EL1 North Perim Spc (G.N3),  !- Zone Name
    ,                        !- Space Name
    GroundFCfactorMethod,    !- Outside Boundary Condition
    ,                        !- Outside Boundary Condition Object
    NoSun,                   !- Sun Exposure
    NoWind,                  !- Wind Exposure
    ,                        !- View Factor to Ground
    ,                        !- Number of Vertices
    333.89316,55.64124,0,  !- X,Y,Z ==> Vertex 1 {m}
    329.32116,51.06924,0,  !- X,Y,Z ==> Vertex 2 {m}
    4.572,51.06924,0,  !- X,Y,Z ==> Vertex 3 {m}
    0,55.64124,0;  !- X,Y,Z ==> Vertex 4 {m}

  BuildingSurface:Detailed,
    EL1 Flr (G.S1.U1),       !- Name
    Floor,                   !- Surface Type
    EL1 Flr (G.S1.U1) SlabOnOrBelowGradeF073,  !- Construction Name
    Office EL1 South Perim Spc (G.S1),  !- Zone Name
    ,                        !- Space Name
    GroundFCfactorMethod,    !- Outside Boundary Condition
    ,                        !- Outside Boundary Condition Object
    NoSun,                   !- Sun Exposure
    NoWind,                  !- Wind Exposure
    ,                        !- View Factor to Ground
    ,                        !- Number of Vertices
    329.32116,4.572,0,  !- X,Y,Z ==> Vertex 1 {m}
    333.89316,0,0,  !- X,Y,Z ==> Vertex 2 {m}
    0,0,0,  !- X,Y,Z ==> Vertex 3 {m}
    4.572,4.572,0;  !- X,Y,Z ==> Vertex 4 {m}

  BuildingSurface:Detailed,
    EL1 Flr (G.W4.U4),       !- Name
    Floor,                   !- Surface Type
    EL1 Flr (G.W4.U4) SlabOnOrBelowGradeF073,  !- Construction Name
    Office EL1 West Perim Spc (G.W4),  !- Zone Name
    ,                        !- Space Name
    GroundFCfactorMethod,    !- Outside Boundary Condition
    ,                        !- Outside Boundary Condition Object
    NoSun,                   !- Sun Exposure
    NoWind,                  !- Wind Exposure
    ,                        !- View Factor to Ground
    ,                        !- Number of Vertices
    0,55.64124,0,  !- X,Y,Z ==> Vertex 1 {m}
    4.572,51.06924,0,  !- X,Y,Z ==> Vertex 2 {m}
    4.572,4.572,0,  !- X,Y,Z ==> Vertex 3 {m}
    0,0,0;  !- X,Y,Z ==> Vertex 4 {m}

  BuildingSurface:Detailed,
    EL1 NE Wall (G.S1.I1)-mirror,  !- Name
    Wall,                    !- Surface Type
    Interior Wall,           !- Construction Name
    Office EL1 East Perim Spc (G.E2),  !- Zone Name
    ,                        !- Space Name
    Surface,                 !- Outside Boundary Condition
    EL1 NE Wall (G.S1.I1)-mirror Reversed,  !- Outside Boundary Condition Object
    NoSun,                   !- Sun Exposure
    NoWind,                  !- Wind Exposure
    ,                        !- View Factor to Ground
    ,                        !- Number of Vertices
    329.32116,4.572,2.7432,  !- X,Y,Z ==> Vertex 1 {m}
    329.32116,4.572,0,  !- X,Y,Z ==> Vertex 2 {m}
    333.89316,0,0,  !- X,Y,Z ==> Vertex 3 {m}
    333.89316,0,2.7432;  !- X,Y,Z ==> Vertex 4 {m}

  BuildingSurface:Detailed,
    EL1 NE Wall (G.S1.I1)-mirror Reversed,  !- Name
    Wall,                    !- Surface Type
    Interior Wall,           !- Construction Name
    Office EL1 South Perim Spc (G.S1),  !- Zone Name
    ,                        !- Space Name
    Surface,                 !- Outside Boundary Condition
    EL1 NE Wall (G.S1.I1)-mirror,  !- Outside Boundary Condition Object
    NoSun,                   !- Sun Exposure
    NoWind,                  !- Wind Exposure
    ,                        !- View Factor to Ground
    ,                        !- Number of Vertices
    333.89316,0,2.7432,  !- X,Y,Z ==> Vertex 1 {m}
    333.89316,0,0,  !- X,Y,Z ==> Vertex 2 {m}
    329.32116,4.572,0,  !- X,Y,Z ==> Vertex 3 {m}
    329.32116,4.572,2.7432;  !- X,Y,Z ==> Vertex 4 {m}

  BuildingSurface:Detailed,
    EL1 NE Wall (G.S12.I38)-mirror,  !- Name
    Wall,                    !- Surface Type
    Interior Wall,           !- Construction Name
    EL1 East Perim Plnm (G.E13),  !- Zone Name
    ,                        !- Space Name
    Surface,                 !- Outside Boundary Condition
    EL1 NE Wall (G.S12.I38)-mirror Reversed,  !- Outside Boundary Condition Object
    NoSun,                   !- Sun Exposure
    NoWind,                  !- Wind Exposure
    ,                        !- View Factor to Ground
    ,                        !- Number of Vertices
    329.32116,4.572,4.572,  !- X,Y,Z ==> Vertex 1 {m}
    329.32116,4.572,2.7432,  !- X,Y,Z ==> Vertex 2 {m}
    333.89316,0,2.7432,  !- X,Y,Z ==> Vertex 3 {m}
    333.89316,0,4.572;  !- X,Y,Z ==> Vertex 4 {m}

  BuildingSurface:Detailed,
    EL1 NE Wall (G.S12.I38)-mirror Reversed,  !- Name
    Wall,                    !- Surface Type
    Interior Wall,           !- Construction Name
    EL1 South Perim Plnm (G.S12),  !- Zone Name
    ,                        !- Space Name
    Surface,                 !- Outside Boundary Condition
    EL1 NE Wall (G.S12.I38)-mirror,  !- Outside Boundary Condition Object
    NoSun,                   !- Sun Exposure
    NoWind,                  !- Wind Exposure
    ,                        !- View Factor to Ground
    ,                        !- Number of Vertices
    333.89316,0,4.572,  !- X,Y,Z ==> Vertex 1 {m}
    333.89316,0,2.7432,  !- X,Y,Z ==> Vertex 2 {m}
    329.32116,4.572,2.7432,  !- X,Y,Z ==> Vertex 3 {m}
    329.32116,4.572,4.572;  !- X,Y,Z ==> Vertex 4 {m}

  BuildingSurface:Detailed,
    EL1 NW Wall (G.S1.I9),   !- Name
    Wall,                    !- Surface Type
    Interior Wall,           !- Construction Name
    Office EL1 South Perim Spc (G.S1),  !- Zone Name
    ,                        !- Space Name
    Surface,                 !- Outside Boundary Condition
    EL1 NW Wall (G.S1.I9) Reversed,  !- Outside Boundary Condition Object
    NoSun,                   !- Sun Exposure
    NoWind,                  !- Wind Exposure
    ,                        !- View Factor to Ground
    ,                        !- Number of Vertices
    4.572,4.572,2.7432,  !- X,Y,Z ==> Vertex 1 {m}
    4.572,4.572,0,  !- X,Y,Z ==> Vertex 2 {m}
    0,0,0,  !- X,Y,Z ==> Vertex 3 {m}
    0,0,2.7432;  !- X,Y,Z ==> Vertex 4 {m}

  BuildingSurface:Detailed,
    EL1 NW Wall (G.S1.I9) Reversed,  !- Name
    Wall,                    !- Surface Type
    Interior Wall,           !- Construction Name
    Office EL1 West Perim Spc (G.W4),  !- Zone Name
    ,                        !- Space Name
    Surface,                 !- Outside Boundary Condition
    EL1 NW Wall (G.S1.I9),   !- Outside Boundary Condition Object
    NoSun,                   !- Sun Exposure
    NoWind,                  !- Wind Exposure
    ,                        !- View Factor to Ground
    ,                        !- Number of Vertices
    0,0,2.7432,  !- X,Y,Z ==> Vertex 1 {m}
    0,0,0,  !- X,Y,Z ==> Vertex 2 {m}
    4.572,4.572,0,  !- X,Y,Z ==> Vertex 3 {m}
    4.572,4.572,2.7432;  !- X,Y,Z ==> Vertex 4 {m}

  BuildingSurface:Detailed,
    EL1 NW Wall (G.S12.I46), !- Name
    Wall,                    !- Surface Type
    Interior Wall,           !- Construction Name
    EL1 South Perim Plnm (G.S12),  !- Zone Name
    ,                        !- Space Name
    Surface,                 !- Outside Boundary Condition
    EL1 NW Wall (G.S12.I46) Reversed,  !- Outside Boundary Condition Object
    NoSun,                   !- Sun Exposure
    NoWind,                  !- Wind Exposure
    ,                        !- View Factor to Ground
    ,                        !- Number of Vertices
    4.572,4.572,4.572,  !- X,Y,Z ==> Vertex 1 {m}
    4.572,4.572,2.7432,  !- X,Y,Z ==> Vertex 2 {m}
    0,0,2.7432,  !- X,Y,Z ==> Vertex 3 {m}
    0,0,4.572;  !- X,Y,Z ==> Vertex 4 {m}

  BuildingSurface:Detailed,
    EL1 NW Wall (G.S12.I46) Reversed,  !- Name
    Wall,                    !- Surface Type
    Interior Wall,           !- Construction Name
    EL1 West Perim Plnm (G.W15),  !- Zone Name
    ,                        !- Space Name
    Surface,                 !- Outside Boundary Condition
    EL1 NW Wall (G.S12.I46), !- Outside Boundary Condition Object
    NoSun,                   !- Sun Exposure
    NoWind,                  !- Wind Exposure
    ,                        !- View Factor to Ground
    ,                        !- Number of Vertices
    0,0,4.572,  !- X,Y,Z ==> Vertex 1 {m}
    0,0,2.7432,  !- X,Y,Z ==> Vertex 2 {m}
    4.572,4.572,2.7432,  !- X,Y,Z ==> Vertex 3 {m}
    4.572,4.572,4.572;  !- X,Y,Z ==> Vertex 4 {m}

  BuildingSurface:Detailed,
    EL1 North Wall (G.N14.E9),  !- Name
    Wall,                    !- Surface Type
    Exterior Wall,           !- Construction Name
    EL1 North Perim Plnm (G.N14),  !- Zone Name
    ,                        !- Space Name
    Outdoors,                !- Outside Boundary Condition
    ,                        !- Outside Boundary Condition Object
    SunExposed,              !- Sun Exposure
    WindExposed,             !- Wind Exposure
    ,                        !- View Factor to Ground
    ,                        !- Number of Vertices
    333.89316,55.64124,4.572,  !- X,Y,Z ==> Vertex 1 {m}
    333.89316,55.64124,2.7432,  !- X,Y,Z ==> Vertex 2 {m}
    0,55.64124,2.7432,  !- X,Y,Z ==> Vertex 3 {m}
    0,55.64124,4.572;  !- X,Y,Z ==> Vertex 4 {m}

  BuildingSurface:Detailed,
    EL1 North Wall (G.N3.E3),!- Name
    Wall,                    !- Surface Type
    Exterior Wall,           !- Construction Name
    Office EL1 North Perim Spc (G.N3),  !- Zone Name
    ,                        !- Space Name
    Outdoors,                !- Outside Boundary Condition
    ,                        !- Outside Boundary Condition Object
    SunExposed,              !- Sun Exposure
    WindExposed,             !- Wind Exposure
    ,                        !- View Factor to Ground
    ,                        !- Number of Vertices
    333.89316,55.64124,2.7432,  !- X,Y,Z ==> Vertex 1 {m}
    333.89316,55.64124,0,  !- X,Y,Z ==> Vertex 2 {m}
    0,55.64124,0,  !- X,Y,Z ==> Vertex 3 {m}
    0,55.64124,2.7432;  !- X,Y,Z ==> Vertex 4 {m}

  BuildingSurface:Detailed,
    EL1 North Wall (G.S1.I2)-mirror,  !- Name
    Wall,                    !- Surface Type
    Interior Wall,           !- Construction Name
    Office EL1 Core Spc (G.C11),  !- Zone Name
    ,                        !- Space Name
    Surface,                 !- Outside Boundary Condition
    EL1 North Wall (G.S1.I2)-mirror Reversed,  !- Outside Boundary Condition Object
    NoSun,                   !- Sun Exposure
    NoWind,                  !- Wind Exposure
    ,                        !- View Factor to Ground
    ,                        !- Number of Vertices
    297.594528,4.572,2.7432,  !- X,Y,Z ==> Vertex 1 {m}
    297.594528,4.572,0,  !- X,Y,Z ==> Vertex 2 {m}
    329.32116,4.572,0,  !- X,Y,Z ==> Vertex 3 {m}
    329.32116,4.572,2.7432;  !- X,Y,Z ==> Vertex 4 {m}

  BuildingSurface:Detailed,
    EL1 North Wall (G.S1.I2)-mirror Reversed,  !- Name
    Wall,                    !- Surface Type
    Interior Wall,           !- Construction Name
    Office EL1 South Perim Spc (G.S1),  !- Zone Name
    ,                        !- Space Name
    Surface,                 !- Outside Boundary Condition
    EL1 North Wall (G.S1.I2)-mirror,  !- Outside Boundary Condition Object
    NoSun,                   !- Sun Exposure
    NoWind,                  !- Wind Exposure
    ,                        !- View Factor to Ground
    ,                        !- Number of Vertices
    329.32116,4.572,2.7432,  !- X,Y,Z ==> Vertex 1 {m}
    329.32116,4.572,0,  !- X,Y,Z ==> Vertex 2 {m}
    297.594528,4.572,0,  !- X,Y,Z ==> Vertex 3 {m}
    297.594528,4.572,2.7432;  !- X,Y,Z ==> Vertex 4 {m}

  BuildingSurface:Detailed,
    EL1 North Wall (G.S1.I3)-mirror,  !- Name
    Wall,                    !- Surface Type
    Interior Wall,           !- Construction Name
    Kitchen EL1 Core Spc (G.C10),  !- Zone Name
    ,                        !- Space Name
    Surface,                 !- Outside Boundary Condition
    EL1 North Wall (G.S1.I3)-mirror Reversed,  !- Outside Boundary Condition Object
    NoSun,                   !- Sun Exposure
    NoWind,                  !- Wind Exposure
    ,                        !- View Factor to Ground
    ,                        !- Number of Vertices
    293.600124,4.572,2.7432,  !- X,Y,Z ==> Vertex 1 {m}
    293.600124,4.572,0,  !- X,Y,Z ==> Vertex 2 {m}
    297.594528,4.572,0,  !- X,Y,Z ==> Vertex 3 {m}
    297.594528,4.572,2.7432;  !- X,Y,Z ==> Vertex 4 {m}

  BuildingSurface:Detailed,
    EL1 North Wall (G.S1.I3)-mirror Reversed,  !- Name
    Wall,                    !- Surface Type
    Interior Wall,           !- Construction Name
    Office EL1 South Perim Spc (G.S1),  !- Zone Name
    ,                        !- Space Name
    Surface,                 !- Outside Boundary Condition
    EL1 North Wall (G.S1.I3)-mirror,  !- Outside Boundary Condition Object
    NoSun,                   !- Sun Exposure
    NoWind,                  !- Wind Exposure
    ,                        !- View Factor to Ground
    ,                        !- Number of Vertices
    297.594528,4.572,2.7432,  !- X,Y,Z ==> Vertex 1 {m}
    297.594528,4.572,0,  !- X,Y,Z ==> Vertex 2 {m}
    293.600124,4.572,0,  !- X,Y,Z ==> Vertex 3 {m}
    293.600124,4.572,2.7432;  !- X,Y,Z ==> Vertex 4 {m}

  BuildingSurface:Detailed,
    EL1 North Wall (G.S1.I4)-mirror,  !- Name
    Wall,                    !- Surface Type
    Interior Wall,           !- Construction Name
    Dining EL1 Core Spc (G.C9),  !- Zone Name
    ,                        !- Space Name
    Surface,                 !- Outside Boundary Condition
    EL1 North Wall (G.S1.I4)-mirror Reversed,  !- Outside Boundary Condition Object
    NoSun,                   !- Sun Exposure
    NoWind,                  !- Wind Exposure
    ,                        !- View Factor to Ground
    ,                        !- Number of Vertices
    281.616912,4.572,2.7432,  !- X,Y,Z ==> Vertex 1 {m}
    281.616912,4.572,0,  !- X,Y,Z ==> Vertex 2 {m}
    293.5986,4.572,0,  !- X,Y,Z ==> Vertex 3 {m}
    293.5986,4.572,2.7432;  !- X,Y,Z ==> Vertex 4 {m}

  BuildingSurface:Detailed,
    EL1 North Wall (G.S1.I4)-mirror Reversed,  !- Name
    Wall,                    !- Surface Type
    Interior Wall,           !- Construction Name
    Office EL1 South Perim Spc (G.S1),  !- Zone Name
    ,                        !- Space Name
    Surface,                 !- Outside Boundary Condition
    EL1 North Wall (G.S1.I4)-mirror,  !- Outside Boundary Condition Object
    NoSun,                   !- Sun Exposure
    NoWind,                  !- Wind Exposure
    ,                        !- View Factor to Ground
    ,                        !- Number of Vertices
    293.5986,4.572,2.7432,  !- X,Y,Z ==> Vertex 1 {m}
    293.5986,4.572,0,  !- X,Y,Z ==> Vertex 2 {m}
    281.616912,4.572,0,  !- X,Y,Z ==> Vertex 3 {m}
    281.616912,4.572,2.7432;  !- X,Y,Z ==> Vertex 4 {m}

  BuildingSurface:Detailed,
    EL1 North Wall (G.S1.I5)-mirror,  !- Name
    Wall,                    !- Surface Type
    Interior Wall,           !- Construction Name
    Computer EL1 Core Spc (G.C8),  !- Zone Name
    ,                        !- Space Name
    Surface,                 !- Outside Boundary Condition
    EL1 North Wall (G.S1.I5)-mirror Reversed,  !- Outside Boundary Condition Object
    NoSun,                   !- Sun Exposure
    NoWind,                  !- Wind Exposure
    ,                        !- View Factor to Ground
    ,                        !- Number of Vertices
    273.628104,4.572,2.7432,  !- X,Y,Z ==> Vertex 1 {m}
    273.628104,4.572,0,  !- X,Y,Z ==> Vertex 2 {m}
    281.615388,4.572,0,  !- X,Y,Z ==> Vertex 3 {m}
    281.615388,4.572,2.7432;  !- X,Y,Z ==> Vertex 4 {m}

  BuildingSurface:Detailed,
    EL1 North Wall (G.S1.I5)-mirror Reversed,  !- Name
    Wall,                    !- Surface Type
    Interior Wall,           !- Construction Name
    Office EL1 South Perim Spc (G.S1),  !- Zone Name
    ,                        !- Space Name
    Surface,                 !- Outside Boundary Condition
    EL1 North Wall (G.S1.I5)-mirror,  !- Outside Boundary Condition Object
    NoSun,                   !- Sun Exposure
    NoWind,                  !- Wind Exposure
    ,                        !- View Factor to Ground
    ,                        !- Number of Vertices
    281.615388,4.572,2.7432,  !- X,Y,Z ==> Vertex 1 {m}
    281.615388,4.572,0,  !- X,Y,Z ==> Vertex 2 {m}
    273.628104,4.572,0,  !- X,Y,Z ==> Vertex 3 {m}
    273.628104,4.572,2.7432;  !- X,Y,Z ==> Vertex 4 {m}

  BuildingSurface:Detailed,
    EL1 North Wall (G.S1.I6)-mirror,  !- Name
    Wall,                    !- Surface Type
    Interior Wall,           !- Construction Name
    Conference EL1 Core Spc (G.C7),  !- Zone Name
    ,                        !- Space Name
    Surface,                 !- Outside Boundary Condition
    EL1 North Wall (G.S1.I6)-mirror Reversed,  !- Outside Boundary Condition Object
    NoSun,                   !- Sun Exposure
    NoWind,                  !- Wind Exposure
    ,                        !- View Factor to Ground
    ,                        !- Number of Vertices
    265.6386864,4.572,2.7432,  !- X,Y,Z ==> Vertex 1 {m}
    265.6386864,4.572,0,  !- X,Y,Z ==> Vertex 2 {m}
    273.628104,4.572,0,  !- X,Y,Z ==> Vertex 3 {m}
    273.628104,4.572,2.7432;  !- X,Y,Z ==> Vertex 4 {m}

  BuildingSurface:Detailed,
    EL1 North Wall (G.S1.I6)-mirror Reversed,  !- Name
    Wall,                    !- Surface Type
    Interior Wall,           !- Construction Name
    Office EL1 South Perim Spc (G.S1),  !- Zone Name
    ,                        !- Space Name
    Surface,                 !- Outside Boundary Condition
    EL1 North Wall (G.S1.I6)-mirror,  !- Outside Boundary Condition Object
    NoSun,                   !- Sun Exposure
    NoWind,                  !- Wind Exposure
    ,                        !- View Factor to Ground
    ,                        !- Number of Vertices
    273.628104,4.572,2.7432,  !- X,Y,Z ==> Vertex 1 {m}
    273.628104,4.572,0,  !- X,Y,Z ==> Vertex 2 {m}
    265.6386864,4.572,0,  !- X,Y,Z ==> Vertex 3 {m}
    265.6386864,4.572,2.7432;  !- X,Y,Z ==> Vertex 4 {m}

  BuildingSurface:Detailed,
    EL1 North Wall (G.S1.I7)-mirror,  !- Name
    Wall,                    !- Surface Type
    Interior Wall,           !- Construction Name
    Corridor EL1 Core Spc (G.C6),  !- Zone Name
    ,                        !- Space Name
    Surface,                 !- Outside Boundary Condition
    EL1 North Wall (G.S1.I7)-mirror Reversed,  !- Outside Boundary Condition Object
    NoSun,                   !- Sun Exposure
    NoWind,                  !- Wind Exposure
    ,                        !- View Factor to Ground
    ,                        !- Number of Vertices
    185.717688,4.572,2.7432,  !- X,Y,Z ==> Vertex 1 {m}
    185.717688,4.572,0,  !- X,Y,Z ==> Vertex 2 {m}
    265.6386864,4.572,0,  !- X,Y,Z ==> Vertex 3 {m}
    265.6386864,4.572,2.7432;  !- X,Y,Z ==> Vertex 4 {m}

  BuildingSurface:Detailed,
    EL1 North Wall (G.S1.I7)-mirror Reversed,  !- Name
    Wall,                    !- Surface Type
    Interior Wall,           !- Construction Name
    Office EL1 South Perim Spc (G.S1),  !- Zone Name
    ,                        !- Space Name
    Surface,                 !- Outside Boundary Condition
    EL1 North Wall (G.S1.I7)-mirror,  !- Outside Boundary Condition Object
    NoSun,                   !- Sun Exposure
    NoWind,                  !- Wind Exposure
    ,                        !- View Factor to Ground
    ,                        !- Number of Vertices
    265.6386864,4.572,2.7432,  !- X,Y,Z ==> Vertex 1 {m}
    265.6386864,4.572,0,  !- X,Y,Z ==> Vertex 2 {m}
    185.717688,4.572,0,  !- X,Y,Z ==> Vertex 3 {m}
    185.717688,4.572,2.7432;  !- X,Y,Z ==> Vertex 4 {m}

  BuildingSurface:Detailed,
    EL1 North Wall (G.S1.I8)-mirror,  !- Name
    Wall,                    !- Surface Type
    Interior Wall,           !- Construction Name
    Lab EL1 Core Spc (G.C5), !- Zone Name
    ,                        !- Space Name
    Surface,                 !- Outside Boundary Condition
    EL1 North Wall (G.S1.I8)-mirror Reversed,  !- Outside Boundary Condition Object
    NoSun,                   !- Sun Exposure
    NoWind,                  !- Wind Exposure
    ,                        !- View Factor to Ground
    ,                        !- Number of Vertices
    4.572,4.572,2.7432,  !- X,Y,Z ==> Vertex 1 {m}
    4.572,4.572,0,  !- X,Y,Z ==> Vertex 2 {m}
    185.717688,4.572,0,  !- X,Y,Z ==> Vertex 3 {m}
    185.717688,4.572,2.7432;  !- X,Y,Z ==> Vertex 4 {m}

  BuildingSurface:Detailed,
    EL1 North Wall (G.S1.I8)-mirror Reversed,  !- Name
    Wall,                    !- Surface Type
    Interior Wall,           !- Construction Name
    Office EL1 South Perim Spc (G.S1),  !- Zone Name
    ,                        !- Space Name
    Surface,                 !- Outside Boundary Condition
    EL1 North Wall (G.S1.I8)-mirror,  !- Outside Boundary Condition Object
    NoSun,                   !- Sun Exposure
    NoWind,                  !- Wind Exposure
    ,                        !- View Factor to Ground
    ,                        !- Number of Vertices
    185.717688,4.572,2.7432,  !- X,Y,Z ==> Vertex 1 {m}
    185.717688,4.572,0,  !- X,Y,Z ==> Vertex 2 {m}
    4.572,4.572,0,  !- X,Y,Z ==> Vertex 3 {m}
    4.572,4.572,2.7432;  !- X,Y,Z ==> Vertex 4 {m}

  BuildingSurface:Detailed,
    EL1 North Wall (G.S12.I39)-mirror,  !- Name
    Wall,                    !- Surface Type
    Interior Wall,           !- Construction Name
    EL1 Core Plnm (G.C22),   !- Zone Name
    ,                        !- Space Name
    Surface,                 !- Outside Boundary Condition
    EL1 North Wall (G.S12.I39)-mirror Reversed,  !- Outside Boundary Condition Object
    NoSun,                   !- Sun Exposure
    NoWind,                  !- Wind Exposure
    ,                        !- View Factor to Ground
    ,                        !- Number of Vertices
    297.594528,4.572,4.572,  !- X,Y,Z ==> Vertex 1 {m}
    297.594528,4.572,2.7432,  !- X,Y,Z ==> Vertex 2 {m}
    329.32116,4.572,2.7432,  !- X,Y,Z ==> Vertex 3 {m}
    329.32116,4.572,4.572;  !- X,Y,Z ==> Vertex 4 {m}

  BuildingSurface:Detailed,
    EL1 North Wall (G.S12.I39)-mirror Reversed,  !- Name
    Wall,                    !- Surface Type
    Interior Wall,           !- Construction Name
    EL1 South Perim Plnm (G.S12),  !- Zone Name
    ,                        !- Space Name
    Surface,                 !- Outside Boundary Condition
    EL1 North Wall (G.S12.I39)-mirror,  !- Outside Boundary Condition Object
    NoSun,                   !- Sun Exposure
    NoWind,                  !- Wind Exposure
    ,                        !- View Factor to Ground
    ,                        !- Number of Vertices
    329.32116,4.572,4.572,  !- X,Y,Z ==> Vertex 1 {m}
    329.32116,4.572,2.7432,  !- X,Y,Z ==> Vertex 2 {m}
    297.594528,4.572,2.7432,  !- X,Y,Z ==> Vertex 3 {m}
    297.594528,4.572,4.572;  !- X,Y,Z ==> Vertex 4 {m}

  BuildingSurface:Detailed,
    EL1 North Wall (G.S12.I40)-mirror,  !- Name
    Wall,                    !- Surface Type
    Interior Wall,           !- Construction Name
    EL1 Core Plnm (G.C21),   !- Zone Name
    ,                        !- Space Name
    Surface,                 !- Outside Boundary Condition
    EL1 North Wall (G.S12.I40)-mirror Reversed,  !- Outside Boundary Condition Object
    NoSun,                   !- Sun Exposure
    NoWind,                  !- Wind Exposure
    ,                        !- View Factor to Ground
    ,                        !- Number of Vertices
    293.600124,4.572,4.572,  !- X,Y,Z ==> Vertex 1 {m}
    293.600124,4.572,2.7432,  !- X,Y,Z ==> Vertex 2 {m}
    297.594528,4.572,2.7432,  !- X,Y,Z ==> Vertex 3 {m}
    297.594528,4.572,4.572;  !- X,Y,Z ==> Vertex 4 {m}

  BuildingSurface:Detailed,
    EL1 North Wall (G.S12.I40)-mirror Reversed,  !- Name
    Wall,                    !- Surface Type
    Interior Wall,           !- Construction Name
    EL1 South Perim Plnm (G.S12),  !- Zone Name
    ,                        !- Space Name
    Surface,                 !- Outside Boundary Condition
    EL1 North Wall (G.S12.I40)-mirror,  !- Outside Boundary Condition Object
    NoSun,                   !- Sun Exposure
    NoWind,                  !- Wind Exposure
    ,                        !- View Factor to Ground
    ,                        !- Number of Vertices
    297.594528,4.572,4.572,  !- X,Y,Z ==> Vertex 1 {m}
    297.594528,4.572,2.7432,  !- X,Y,Z ==> Vertex 2 {m}
    293.600124,4.572,2.7432,  !- X,Y,Z ==> Vertex 3 {m}
    293.600124,4.572,4.572;  !- X,Y,Z ==> Vertex 4 {m}

  BuildingSurface:Detailed,
    EL1 North Wall (G.S12.I41)-mirror,  !- Name
    Wall,                    !- Surface Type
    Interior Wall,           !- Construction Name
    EL1 Core Plnm (G.C20),   !- Zone Name
    ,                        !- Space Name
    Surface,                 !- Outside Boundary Condition
    EL1 North Wall (G.S12.I41)-mirror Reversed,  !- Outside Boundary Condition Object
    NoSun,                   !- Sun Exposure
    NoWind,                  !- Wind Exposure
    ,                        !- View Factor to Ground
    ,                        !- Number of Vertices
    281.616912,4.572,4.572,  !- X,Y,Z ==> Vertex 1 {m}
    281.616912,4.572,2.7432,  !- X,Y,Z ==> Vertex 2 {m}
    293.5986,4.572,2.7432,  !- X,Y,Z ==> Vertex 3 {m}
    293.5986,4.572,4.572;  !- X,Y,Z ==> Vertex 4 {m}

  BuildingSurface:Detailed,
    EL1 North Wall (G.S12.I41)-mirror Reversed,  !- Name
    Wall,                    !- Surface Type
    Interior Wall,           !- Construction Name
    EL1 South Perim Plnm (G.S12),  !- Zone Name
    ,                        !- Space Name
    Surface,                 !- Outside Boundary Condition
    EL1 North Wall (G.S12.I41)-mirror,  !- Outside Boundary Condition Object
    NoSun,                   !- Sun Exposure
    NoWind,                  !- Wind Exposure
    ,                        !- View Factor to Ground
    ,                        !- Number of Vertices
    293.5986,4.572,4.572,  !- X,Y,Z ==> Vertex 1 {m}
    293.5986,4.572,2.7432,  !- X,Y,Z ==> Vertex 2 {m}
    281.616912,4.572,2.7432,  !- X,Y,Z ==> Vertex 3 {m}
    281.616912,4.572,4.572;  !- X,Y,Z ==> Vertex 4 {m}

  BuildingSurface:Detailed,
    EL1 North Wall (G.S12.I42)-mirror,  !- Name
    Wall,                    !- Surface Type
    Interior Wall,           !- Construction Name
    EL1 Core Plnm (G.C19),   !- Zone Name
    ,                        !- Space Name
    Surface,                 !- Outside Boundary Condition
    EL1 North Wall (G.S12.I42)-mirror Reversed,  !- Outside Boundary Condition Object
    NoSun,                   !- Sun Exposure
    NoWind,                  !- Wind Exposure
    ,                        !- View Factor to Ground
    ,                        !- Number of Vertices
    273.628104,4.572,4.572,  !- X,Y,Z ==> Vertex 1 {m}
    273.628104,4.572,2.7432,  !- X,Y,Z ==> Vertex 2 {m}
    281.616912,4.572,2.7432,  !- X,Y,Z ==> Vertex 3 {m}
    281.616912,4.572,4.572;  !- X,Y,Z ==> Vertex 4 {m}

  BuildingSurface:Detailed,
    EL1 North Wall (G.S12.I42)-mirror Reversed,  !- Name
    Wall,                    !- Surface Type
    Interior Wall,           !- Construction Name
    EL1 South Perim Plnm (G.S12),  !- Zone Name
    ,                        !- Space Name
    Surface,                 !- Outside Boundary Condition
    EL1 North Wall (G.S12.I42)-mirror,  !- Outside Boundary Condition Object
    NoSun,                   !- Sun Exposure
    NoWind,                  !- Wind Exposure
    ,                        !- View Factor to Ground
    ,                        !- Number of Vertices
    281.616912,4.572,4.572,  !- X,Y,Z ==> Vertex 1 {m}
    281.616912,4.572,2.7432,  !- X,Y,Z ==> Vertex 2 {m}
    273.628104,4.572,2.7432,  !- X,Y,Z ==> Vertex 3 {m}
    273.628104,4.572,4.572;  !- X,Y,Z ==> Vertex 4 {m}

  BuildingSurface:Detailed,
    EL1 North Wall (G.S12.I43)-mirror,  !- Name
    Wall,                    !- Surface Type
    Interior Wall,           !- Construction Name
    EL1 Core Plnm (G.C18),   !- Zone Name
    ,                        !- Space Name
    Surface,                 !- Outside Boundary Condition
    EL1 North Wall (G.S12.I43)-mirror Reversed,  !- Outside Boundary Condition Object
    NoSun,                   !- Sun Exposure
    NoWind,                  !- Wind Exposure
    ,                        !- View Factor to Ground
    ,                        !- Number of Vertices
    265.6386864,4.572,4.572,  !- X,Y,Z ==> Vertex 1 {m}
    265.6386864,4.572,2.7432,  !- X,Y,Z ==> Vertex 2 {m}
    273.628104,4.572,2.7432,  !- X,Y,Z ==> Vertex 3 {m}
    273.628104,4.572,4.572;  !- X,Y,Z ==> Vertex 4 {m}

  BuildingSurface:Detailed,
    EL1 North Wall (G.S12.I43)-mirror Reversed,  !- Name
    Wall,                    !- Surface Type
    Interior Wall,           !- Construction Name
    EL1 South Perim Plnm (G.S12),  !- Zone Name
    ,                        !- Space Name
    Surface,                 !- Outside Boundary Condition
    EL1 North Wall (G.S12.I43)-mirror,  !- Outside Boundary Condition Object
    NoSun,                   !- Sun Exposure
    NoWind,                  !- Wind Exposure
    ,                        !- View Factor to Ground
    ,                        !- Number of Vertices
    273.628104,4.572,4.572,  !- X,Y,Z ==> Vertex 1 {m}
    273.628104,4.572,2.7432,  !- X,Y,Z ==> Vertex 2 {m}
    265.6386864,4.572,2.7432,  !- X,Y,Z ==> Vertex 3 {m}
    265.6386864,4.572,4.572;  !- X,Y,Z ==> Vertex 4 {m}

  BuildingSurface:Detailed,
    EL1 North Wall (G.S12.I44)-mirror,  !- Name
    Wall,                    !- Surface Type
    Interior Wall,           !- Construction Name
    EL1 Core Plnm (G.C17),   !- Zone Name
    ,                        !- Space Name
    Surface,                 !- Outside Boundary Condition
    EL1 North Wall (G.S12.I44)-mirror Reversed,  !- Outside Boundary Condition Object
    NoSun,                   !- Sun Exposure
    NoWind,                  !- Wind Exposure
    ,                        !- View Factor to Ground
    ,                        !- Number of Vertices
    185.717688,4.572,4.572,  !- X,Y,Z ==> Vertex 1 {m}
    185.717688,4.572,2.7432,  !- X,Y,Z ==> Vertex 2 {m}
    265.6386864,4.572,2.7432,  !- X,Y,Z ==> Vertex 3 {m}
    265.6386864,4.572,4.572;  !- X,Y,Z ==> Vertex 4 {m}

  BuildingSurface:Detailed,
    EL1 North Wall (G.S12.I44)-mirror Reversed,  !- Name
    Wall,                    !- Surface Type
    Interior Wall,           !- Construction Name
    EL1 South Perim Plnm (G.S12),  !- Zone Name
    ,                        !- Space Name
    Surface,                 !- Outside Boundary Condition
    EL1 North Wall (G.S12.I44)-mirror,  !- Outside Boundary Condition Object
    NoSun,                   !- Sun Exposure
    NoWind,                  !- Wind Exposure
    ,                        !- View Factor to Ground
    ,                        !- Number of Vertices
    265.6386864,4.572,4.572,  !- X,Y,Z ==> Vertex 1 {m}
    265.6386864,4.572,2.7432,  !- X,Y,Z ==> Vertex 2 {m}
    185.717688,4.572,2.7432,  !- X,Y,Z ==> Vertex 3 {m}
    185.717688,4.572,4.572;  !- X,Y,Z ==> Vertex 4 {m}

  BuildingSurface:Detailed,
    EL1 North Wall (G.S12.I45)-mirror,  !- Name
    Wall,                    !- Surface Type
    Interior Wall,           !- Construction Name
    EL1 Core Plnm (G.C16),   !- Zone Name
    ,                        !- Space Name
    Surface,                 !- Outside Boundary Condition
    EL1 North Wall (G.S12.I45)-mirror Reversed,  !- Outside Boundary Condition Object
    NoSun,                   !- Sun Exposure
    NoWind,                  !- Wind Exposure
    ,                        !- View Factor to Ground
    ,                        !- Number of Vertices
    4.572,4.572,4.572,  !- X,Y,Z ==> Vertex 1 {m}
    4.572,4.572,2.7432,  !- X,Y,Z ==> Vertex 2 {m}
    185.717688,4.572,2.7432,  !- X,Y,Z ==> Vertex 3 {m}
    185.717688,4.572,4.572;  !- X,Y,Z ==> Vertex 4 {m}

  BuildingSurface:Detailed,
    EL1 North Wall (G.S12.I45)-mirror Reversed,  !- Name
    Wall,                    !- Surface Type
    Interior Wall,           !- Construction Name
    EL1 South Perim Plnm (G.S12),  !- Zone Name
    ,                        !- Space Name
    Surface,                 !- Outside Boundary Condition
    EL1 North Wall (G.S12.I45)-mirror,  !- Outside Boundary Condition Object
    NoSun,                   !- Sun Exposure
    NoWind,                  !- Wind Exposure
    ,                        !- View Factor to Ground
    ,                        !- Number of Vertices
    185.717688,4.572,4.572,  !- X,Y,Z ==> Vertex 1 {m}
    185.717688,4.572,2.7432,  !- X,Y,Z ==> Vertex 2 {m}
    4.572,4.572,2.7432,  !- X,Y,Z ==> Vertex 3 {m}
    4.572,4.572,4.572;  !- X,Y,Z ==> Vertex 4 {m}

  BuildingSurface:Detailed,
    EL1 Roof (G.C16.E13),    !- Name
    Roof,                    !- Surface Type
    Exterior Roof,           !- Construction Name
    EL1 Core Plnm (G.C16),   !- Zone Name
    ,                        !- Space Name
    Outdoors,                !- Outside Boundary Condition
    ,                        !- Outside Boundary Condition Object
    SunExposed,              !- Sun Exposure
    WindExposed,             !- Wind Exposure
    ,                        !- View Factor to Ground
    ,                        !- Number of Vertices
    185.717688,4.572,4.572,  !- X,Y,Z ==> Vertex 1 {m}
    185.717688,51.06924,4.572,  !- X,Y,Z ==> Vertex 2 {m}
    4.572,51.06924,4.572,  !- X,Y,Z ==> Vertex 3 {m}
    4.572,4.572,4.572;  !- X,Y,Z ==> Vertex 4 {m}

  BuildingSurface:Detailed,
    EL1 Roof (G.C17.E14),    !- Name
    Roof,                    !- Surface Type
    Exterior Roof,           !- Construction Name
    EL1 Core Plnm (G.C17),   !- Zone Name
    ,                        !- Space Name
    Outdoors,                !- Outside Boundary Condition
    ,                        !- Outside Boundary Condition Object
    SunExposed,              !- Sun Exposure
    WindExposed,             !- Wind Exposure
    ,                        !- View Factor to Ground
    ,                        !- Number of Vertices
    265.6386864,4.572,4.572,  !- X,Y,Z ==> Vertex 1 {m}
    265.6386864,51.06924,4.572,  !- X,Y,Z ==> Vertex 2 {m}
    185.7170784,51.06924,4.572,  !- X,Y,Z ==> Vertex 3 {m}
    185.7170784,4.572,4.572;  !- X,Y,Z ==> Vertex 4 {m}

  BuildingSurface:Detailed,
    EL1 Roof (G.C18.E15),    !- Name
    Roof,                    !- Surface Type
    Exterior Roof,           !- Construction Name
    EL1 Core Plnm (G.C18),   !- Zone Name
    ,                        !- Space Name
    Outdoors,                !- Outside Boundary Condition
    ,                        !- Outside Boundary Condition Object
    SunExposed,              !- Sun Exposure
    WindExposed,             !- Wind Exposure
    ,                        !- View Factor to Ground
    ,                        !- Number of Vertices
    273.628104,4.572,4.572,  !- X,Y,Z ==> Vertex 1 {m}
    273.628104,51.06924,4.572,  !- X,Y,Z ==> Vertex 2 {m}
    265.6386864,51.06924,4.572,  !- X,Y,Z ==> Vertex 3 {m}
    265.6386864,4.572,4.572;  !- X,Y,Z ==> Vertex 4 {m}

  BuildingSurface:Detailed,
    EL1 Roof (G.C19.E16),    !- Name
    Roof,                    !- Surface Type
    Exterior Roof,           !- Construction Name
    EL1 Core Plnm (G.C19),   !- Zone Name
    ,                        !- Space Name
    Outdoors,                !- Outside Boundary Condition
    ,                        !- Outside Boundary Condition Object
    SunExposed,              !- Sun Exposure
    WindExposed,             !- Wind Exposure
    ,                        !- View Factor to Ground
    ,                        !- Number of Vertices
    281.615388,4.572,4.572,  !- X,Y,Z ==> Vertex 1 {m}
    281.615388,51.06924,4.572,  !- X,Y,Z ==> Vertex 2 {m}
    273.628104,51.06924,4.572,  !- X,Y,Z ==> Vertex 3 {m}
    273.628104,4.572,4.572;  !- X,Y,Z ==> Vertex 4 {m}

  BuildingSurface:Detailed,
    EL1 Roof (G.C20.E17),    !- Name
    Roof,                    !- Surface Type
    Exterior Roof,           !- Construction Name
    EL1 Core Plnm (G.C20),   !- Zone Name
    ,                        !- Space Name
    Outdoors,                !- Outside Boundary Condition
    ,                        !- Outside Boundary Condition Object
    SunExposed,              !- Sun Exposure
    WindExposed,             !- Wind Exposure
    ,                        !- View Factor to Ground
    ,                        !- Number of Vertices
    293.600124,4.572,4.572,  !- X,Y,Z ==> Vertex 1 {m}
    293.600124,51.06924,4.572,  !- X,Y,Z ==> Vertex 2 {m}
    281.615388,51.06924,4.572,  !- X,Y,Z ==> Vertex 3 {m}
    281.615388,4.572,4.572;  !- X,Y,Z ==> Vertex 4 {m}

  BuildingSurface:Detailed,
    EL1 Roof (G.C21.E18),    !- Name
    Roof,                    !- Surface Type
    Exterior Roof,           !- Construction Name
    EL1 Core Plnm (G.C21),   !- Zone Name
    ,                        !- Space Name
    Outdoors,                !- Outside Boundary Condition
    ,                        !- Outside Boundary Condition Object
    SunExposed,              !- Sun Exposure
    WindExposed,             !- Wind Exposure
    ,                        !- View Factor to Ground
    ,                        !- Number of Vertices
    297.594528,4.572,4.572,  !- X,Y,Z ==> Vertex 1 {m}
    297.594528,51.06924,4.572,  !- X,Y,Z ==> Vertex 2 {m}
    293.600124,51.06924,4.572,  !- X,Y,Z ==> Vertex 3 {m}
    293.600124,4.572,4.572;  !- X,Y,Z ==> Vertex 4 {m}

  BuildingSurface:Detailed,
    EL1 Roof (G.C22.E19),    !- Name
    Roof,                    !- Surface Type
    Exterior Roof,           !- Construction Name
    EL1 Core Plnm (G.C22),   !- Zone Name
    ,                        !- Space Name
    Outdoors,                !- Outside Boundary Condition
    ,                        !- Outside Boundary Condition Object
    SunExposed,              !- Sun Exposure
    WindExposed,             !- Wind Exposure
    ,                        !- View Factor to Ground
    ,                        !- Number of Vertices
    329.318112,4.572,4.572,  !- X,Y,Z ==> Vertex 1 {m}
    329.318112,51.06924,4.572,  !- X,Y,Z ==> Vertex 2 {m}
    297.594528,51.06924,4.572,  !- X,Y,Z ==> Vertex 3 {m}
    297.594528,4.572,4.572;  !- X,Y,Z ==> Vertex 4 {m}

  BuildingSurface:Detailed,
    EL1 Roof (G.E13.E8),     !- Name
    Roof,                    !- Surface Type
    Exterior Roof,           !- Construction Name
    EL1 East Perim Plnm (G.E13),  !- Zone Name
    ,                        !- Space Name
    Outdoors,                !- Outside Boundary Condition
    ,                        !- Outside Boundary Condition Object
    SunExposed,              !- Sun Exposure
    WindExposed,             !- Wind Exposure
    ,                        !- View Factor to Ground
    ,                        !- Number of Vertices
    333.89316,0,4.572,  !- X,Y,Z ==> Vertex 1 {m}
    333.89316,55.64124,4.572,  !- X,Y,Z ==> Vertex 2 {m}
    329.32116,51.06924,4.572,  !- X,Y,Z ==> Vertex 3 {m}
    329.32116,4.572,4.572;  !- X,Y,Z ==> Vertex 4 {m}

  BuildingSurface:Detailed,
    EL1 Roof (G.N14.E10),    !- Name
    Roof,                    !- Surface Type
    Exterior Roof,           !- Construction Name
    EL1 North Perim Plnm (G.N14),  !- Zone Name
    ,                        !- Space Name
    Outdoors,                !- Outside Boundary Condition
    ,                        !- Outside Boundary Condition Object
    SunExposed,              !- Sun Exposure
    WindExposed,             !- Wind Exposure
    ,                        !- View Factor to Ground
    ,                        !- Number of Vertices
    329.32116,51.06924,4.572,  !- X,Y,Z ==> Vertex 1 {m}
    333.89316,55.64124,4.572,  !- X,Y,Z ==> Vertex 2 {m}
    0,55.64124,4.572,  !- X,Y,Z ==> Vertex 3 {m}
    4.572,51.06924,4.572;  !- X,Y,Z ==> Vertex 4 {m}

  BuildingSurface:Detailed,
    EL1 Roof (G.S12.E6),     !- Name
    Roof,                    !- Surface Type
    Exterior Roof,           !- Construction Name
    EL1 South Perim Plnm (G.S12),  !- Zone Name
    ,                        !- Space Name
    Outdoors,                !- Outside Boundary Condition
    ,                        !- Outside Boundary Condition Object
    SunExposed,              !- Sun Exposure
    WindExposed,             !- Wind Exposure
    ,                        !- View Factor to Ground
    ,                        !- Number of Vertices
    333.89316,0,4.572,  !- X,Y,Z ==> Vertex 1 {m}
    329.32116,4.572,4.572,  !- X,Y,Z ==> Vertex 2 {m}
    4.572,4.572,4.572,  !- X,Y,Z ==> Vertex 3 {m}
    0,0,4.572;  !- X,Y,Z ==> Vertex 4 {m}

  BuildingSurface:Detailed,
    EL1 Roof (G.W15.E12),    !- Name
    Roof,                    !- Surface Type
    Exterior Roof,           !- Construction Name
    EL1 West Perim Plnm (G.W15),  !- Zone Name
    ,                        !- Space Name
    Outdoors,                !- Outside Boundary Condition
    ,                        !- Outside Boundary Condition Object
    SunExposed,              !- Sun Exposure
    WindExposed,             !- Wind Exposure
    ,                        !- View Factor to Ground
    ,                        !- Number of Vertices
    0,0,4.572,  !- X,Y,Z ==> Vertex 1 {m}
    4.572,4.572,4.572,  !- X,Y,Z ==> Vertex 2 {m}
    4.572,51.06924,4.572,  !- X,Y,Z ==> Vertex 3 {m}
    0,55.64124,4.572;  !- X,Y,Z ==> Vertex 4 {m}

  BuildingSurface:Detailed,
    EL1 SE Wall (G.N14.I56)-mirror,  !- Name
    Wall,                    !- Surface Type
    Interior Wall,           !- Construction Name
    EL1 East Perim Plnm (G.E13),  !- Zone Name
    ,                        !- Space Name
    Surface,                 !- Outside Boundary Condition
    EL1 SE Wall (G.N14.I56)-mirror Reversed,  !- Outside Boundary Condition Object
    NoSun,                   !- Sun Exposure
    NoWind,                  !- Wind Exposure
    ,                        !- View Factor to Ground
    ,                        !- Number of Vertices
    333.89316,55.64124,4.572,  !- X,Y,Z ==> Vertex 1 {m}
    333.89316,55.64124,2.7432,  !- X,Y,Z ==> Vertex 2 {m}
    329.32116,51.06924,2.7432,  !- X,Y,Z ==> Vertex 3 {m}
    329.32116,51.06924,4.572;  !- X,Y,Z ==> Vertex 4 {m}

  BuildingSurface:Detailed,
    EL1 SE Wall (G.N14.I56)-mirror Reversed,  !- Name
    Wall,                    !- Surface Type
    Interior Wall,           !- Construction Name
    EL1 North Perim Plnm (G.N14),  !- Zone Name
    ,                        !- Space Name
    Surface,                 !- Outside Boundary Condition
    EL1 SE Wall (G.N14.I56)-mirror,  !- Outside Boundary Condition Object
    NoSun,                   !- Sun Exposure
    NoWind,                  !- Wind Exposure
    ,                        !- View Factor to Ground
    ,                        !- Number of Vertices
    329.32116,51.06924,4.572,  !- X,Y,Z ==> Vertex 1 {m}
    329.32116,51.06924,2.7432,  !- X,Y,Z ==> Vertex 2 {m}
    333.89316,55.64124,2.7432,  !- X,Y,Z ==> Vertex 3 {m}
    333.89316,55.64124,4.572;  !- X,Y,Z ==> Vertex 4 {m}

  BuildingSurface:Detailed,
    EL1 SE Wall (G.N3.I21)-mirror,  !- Name
    Wall,                    !- Surface Type
    Interior Wall,           !- Construction Name
    Office EL1 East Perim Spc (G.E2),  !- Zone Name
    ,                        !- Space Name
    Surface,                 !- Outside Boundary Condition
    EL1 SE Wall (G.N3.I21)-mirror Reversed,  !- Outside Boundary Condition Object
    NoSun,                   !- Sun Exposure
    NoWind,                  !- Wind Exposure
    ,                        !- View Factor to Ground
    ,                        !- Number of Vertices
    333.89316,55.64124,2.7432,  !- X,Y,Z ==> Vertex 1 {m}
    333.89316,55.64124,0,  !- X,Y,Z ==> Vertex 2 {m}
    329.32116,51.06924,0,  !- X,Y,Z ==> Vertex 3 {m}
    329.32116,51.06924,2.7432;  !- X,Y,Z ==> Vertex 4 {m}

  BuildingSurface:Detailed,
    EL1 SE Wall (G.N3.I21)-mirror Reversed,  !- Name
    Wall,                    !- Surface Type
    Interior Wall,           !- Construction Name
    Office EL1 North Perim Spc (G.N3),  !- Zone Name
    ,                        !- Space Name
    Surface,                 !- Outside Boundary Condition
    EL1 SE Wall (G.N3.I21)-mirror,  !- Outside Boundary Condition Object
    NoSun,                   !- Sun Exposure
    NoWind,                  !- Wind Exposure
    ,                        !- View Factor to Ground
    ,                        !- Number of Vertices
    329.32116,51.06924,2.7432,  !- X,Y,Z ==> Vertex 1 {m}
    329.32116,51.06924,0,  !- X,Y,Z ==> Vertex 2 {m}
    333.89316,55.64124,0,  !- X,Y,Z ==> Vertex 3 {m}
    333.89316,55.64124,2.7432;  !- X,Y,Z ==> Vertex 4 {m}

  BuildingSurface:Detailed,
    EL1 SW Wall (G.N14.I48), !- Name
    Wall,                    !- Surface Type
    Interior Wall,           !- Construction Name
    EL1 North Perim Plnm (G.N14),  !- Zone Name
    ,                        !- Space Name
    Surface,                 !- Outside Boundary Condition
    EL1 SW Wall (G.N14.I48) Reversed,  !- Outside Boundary Condition Object
    NoSun,                   !- Sun Exposure
    NoWind,                  !- Wind Exposure
    ,                        !- View Factor to Ground
    ,                        !- Number of Vertices
    0,55.64124,4.572,  !- X,Y,Z ==> Vertex 1 {m}
    0,55.64124,2.7432,  !- X,Y,Z ==> Vertex 2 {m}
    4.572,51.06924,2.7432,  !- X,Y,Z ==> Vertex 3 {m}
    4.572,51.06924,4.572;  !- X,Y,Z ==> Vertex 4 {m}

  BuildingSurface:Detailed,
    EL1 SW Wall (G.N14.I48) Reversed,  !- Name
    Wall,                    !- Surface Type
    Interior Wall,           !- Construction Name
    EL1 West Perim Plnm (G.W15),  !- Zone Name
    ,                        !- Space Name
    Surface,                 !- Outside Boundary Condition
    EL1 SW Wall (G.N14.I48), !- Outside Boundary Condition Object
    NoSun,                   !- Sun Exposure
    NoWind,                  !- Wind Exposure
    ,                        !- View Factor to Ground
    ,                        !- Number of Vertices
    4.572,51.06924,4.572,  !- X,Y,Z ==> Vertex 1 {m}
    4.572,51.06924,2.7432,  !- X,Y,Z ==> Vertex 2 {m}
    0,55.64124,2.7432,  !- X,Y,Z ==> Vertex 3 {m}
    0,55.64124,4.572;  !- X,Y,Z ==> Vertex 4 {m}

  BuildingSurface:Detailed,
    EL1 SW Wall (G.N3.I13),  !- Name
    Wall,                    !- Surface Type
    Interior Wall,           !- Construction Name
    Office EL1 North Perim Spc (G.N3),  !- Zone Name
    ,                        !- Space Name
    Surface,                 !- Outside Boundary Condition
    EL1 SW Wall (G.N3.I13) Reversed,  !- Outside Boundary Condition Object
    NoSun,                   !- Sun Exposure
    NoWind,                  !- Wind Exposure
    ,                        !- View Factor to Ground
    ,                        !- Number of Vertices
    0,55.64124,2.7432,  !- X,Y,Z ==> Vertex 1 {m}
    0,55.64124,0,  !- X,Y,Z ==> Vertex 2 {m}
    4.572,51.06924,0,  !- X,Y,Z ==> Vertex 3 {m}
    4.572,51.06924,2.7432;  !- X,Y,Z ==> Vertex 4 {m}

  BuildingSurface:Detailed,
    EL1 SW Wall (G.N3.I13) Reversed,  !- Name
    Wall,                    !- Surface Type
    Interior Wall,           !- Construction Name
    Office EL1 West Perim Spc (G.W4),  !- Zone Name
    ,                        !- Space Name
    Surface,                 !- Outside Boundary Condition
    EL1 SW Wall (G.N3.I13),  !- Outside Boundary Condition Object
    NoSun,                   !- Sun Exposure
    NoWind,                  !- Wind Exposure
    ,                        !- View Factor to Ground
    ,                        !- Number of Vertices
    4.572,51.06924,2.7432,  !- X,Y,Z ==> Vertex 1 {m}
    4.572,51.06924,0,  !- X,Y,Z ==> Vertex 2 {m}
    0,55.64124,0,  !- X,Y,Z ==> Vertex 3 {m}
    0,55.64124,2.7432;  !- X,Y,Z ==> Vertex 4 {m}

  BuildingSurface:Detailed,
    EL1 South Wall (G.N14.I49)-mirror,  !- Name
    Wall,                    !- Surface Type
    Interior Wall,           !- Construction Name
    EL1 Core Plnm (G.C16),   !- Zone Name
    ,                        !- Space Name
    Surface,                 !- Outside Boundary Condition
    EL1 South Wall (G.N14.I49)-mirror Reversed,  !- Outside Boundary Condition Object
    NoSun,                   !- Sun Exposure
    NoWind,                  !- Wind Exposure
    ,                        !- View Factor to Ground
    ,                        !- Number of Vertices
    185.717688,51.06924,4.572,  !- X,Y,Z ==> Vertex 1 {m}
    185.717688,51.06924,2.7432,  !- X,Y,Z ==> Vertex 2 {m}
    4.572,51.06924,2.7432,  !- X,Y,Z ==> Vertex 3 {m}
    4.572,51.06924,4.572;  !- X,Y,Z ==> Vertex 4 {m}

  BuildingSurface:Detailed,
    EL1 South Wall (G.N14.I49)-mirror Reversed,  !- Name
    Wall,                    !- Surface Type
    Interior Wall,           !- Construction Name
    EL1 North Perim Plnm (G.N14),  !- Zone Name
    ,                        !- Space Name
    Surface,                 !- Outside Boundary Condition
    EL1 South Wall (G.N14.I49)-mirror,  !- Outside Boundary Condition Object
    NoSun,                   !- Sun Exposure
    NoWind,                  !- Wind Exposure
    ,                        !- View Factor to Ground
    ,                        !- Number of Vertices
    4.572,51.06924,4.572,  !- X,Y,Z ==> Vertex 1 {m}
    4.572,51.06924,2.7432,  !- X,Y,Z ==> Vertex 2 {m}
    185.717688,51.06924,2.7432,  !- X,Y,Z ==> Vertex 3 {m}
    185.717688,51.06924,4.572;  !- X,Y,Z ==> Vertex 4 {m}

  BuildingSurface:Detailed,
    EL1 South Wall (G.N14.I50)-mirror,  !- Name
    Wall,                    !- Surface Type
    Interior Wall,           !- Construction Name
    EL1 Core Plnm (G.C17),   !- Zone Name
    ,                        !- Space Name
    Surface,                 !- Outside Boundary Condition
    EL1 South Wall (G.N14.I50)-mirror Reversed,  !- Outside Boundary Condition Object
    NoSun,                   !- Sun Exposure
    NoWind,                  !- Wind Exposure
    ,                        !- View Factor to Ground
    ,                        !- Number of Vertices
    265.6386864,51.06924,4.572,  !- X,Y,Z ==> Vertex 1 {m}
    265.6386864,51.06924,2.7432,  !- X,Y,Z ==> Vertex 2 {m}
    185.717688,51.06924,2.7432,  !- X,Y,Z ==> Vertex 3 {m}
    185.717688,51.06924,4.572;  !- X,Y,Z ==> Vertex 4 {m}

  BuildingSurface:Detailed,
    EL1 South Wall (G.N14.I50)-mirror Reversed,  !- Name
    Wall,                    !- Surface Type
    Interior Wall,           !- Construction Name
    EL1 North Perim Plnm (G.N14),  !- Zone Name
    ,                        !- Space Name
    Surface,                 !- Outside Boundary Condition
    EL1 South Wall (G.N14.I50)-mirror,  !- Outside Boundary Condition Object
    NoSun,                   !- Sun Exposure
    NoWind,                  !- Wind Exposure
    ,                        !- View Factor to Ground
    ,                        !- Number of Vertices
    185.717688,51.06924,4.572,  !- X,Y,Z ==> Vertex 1 {m}
    185.717688,51.06924,2.7432,  !- X,Y,Z ==> Vertex 2 {m}
    265.6386864,51.06924,2.7432,  !- X,Y,Z ==> Vertex 3 {m}
    265.6386864,51.06924,4.572;  !- X,Y,Z ==> Vertex 4 {m}

  BuildingSurface:Detailed,
    EL1 South Wall (G.N14.I51)-mirror,  !- Name
    Wall,                    !- Surface Type
    Interior Wall,           !- Construction Name
    EL1 Core Plnm (G.C18),   !- Zone Name
    ,                        !- Space Name
    Surface,                 !- Outside Boundary Condition
    EL1 South Wall (G.N14.I51)-mirror Reversed,  !- Outside Boundary Condition Object
    NoSun,                   !- Sun Exposure
    NoWind,                  !- Wind Exposure
    ,                        !- View Factor to Ground
    ,                        !- Number of Vertices
    273.628104,51.06924,4.572,  !- X,Y,Z ==> Vertex 1 {m}
    273.628104,51.06924,2.7432,  !- X,Y,Z ==> Vertex 2 {m}
    265.6386864,51.06924,2.7432,  !- X,Y,Z ==> Vertex 3 {m}
    265.6386864,51.06924,4.572;  !- X,Y,Z ==> Vertex 4 {m}

  BuildingSurface:Detailed,
    EL1 South Wall (G.N14.I51)-mirror Reversed,  !- Name
    Wall,                    !- Surface Type
    Interior Wall,           !- Construction Name
    EL1 North Perim Plnm (G.N14),  !- Zone Name
    ,                        !- Space Name
    Surface,                 !- Outside Boundary Condition
    EL1 South Wall (G.N14.I51)-mirror,  !- Outside Boundary Condition Object
    NoSun,                   !- Sun Exposure
    NoWind,                  !- Wind Exposure
    ,                        !- View Factor to Ground
    ,                        !- Number of Vertices
    265.6386864,51.06924,4.572,  !- X,Y,Z ==> Vertex 1 {m}
    265.6386864,51.06924,2.7432,  !- X,Y,Z ==> Vertex 2 {m}
    273.628104,51.06924,2.7432,  !- X,Y,Z ==> Vertex 3 {m}
    273.628104,51.06924,4.572;  !- X,Y,Z ==> Vertex 4 {m}

  BuildingSurface:Detailed,
    EL1 South Wall (G.N14.I52)-mirror,  !- Name
    Wall,                    !- Surface Type
    Interior Wall,           !- Construction Name
    EL1 Core Plnm (G.C19),   !- Zone Name
    ,                        !- Space Name
    Surface,                 !- Outside Boundary Condition
    EL1 South Wall (G.N14.I52)-mirror Reversed,  !- Outside Boundary Condition Object
    NoSun,                   !- Sun Exposure
    NoWind,                  !- Wind Exposure
    ,                        !- View Factor to Ground
    ,                        !- Number of Vertices
    281.616912,51.06924,4.572,  !- X,Y,Z ==> Vertex 1 {m}
    281.616912,51.06924,2.7432,  !- X,Y,Z ==> Vertex 2 {m}
    273.628104,51.06924,2.7432,  !- X,Y,Z ==> Vertex 3 {m}
    273.628104,51.06924,4.572;  !- X,Y,Z ==> Vertex 4 {m}

  BuildingSurface:Detailed,
    EL1 South Wall (G.N14.I52)-mirror Reversed,  !- Name
    Wall,                    !- Surface Type
    Interior Wall,           !- Construction Name
    EL1 North Perim Plnm (G.N14),  !- Zone Name
    ,                        !- Space Name
    Surface,                 !- Outside Boundary Condition
    EL1 South Wall (G.N14.I52)-mirror,  !- Outside Boundary Condition Object
    NoSun,                   !- Sun Exposure
    NoWind,                  !- Wind Exposure
    ,                        !- View Factor to Ground
    ,                        !- Number of Vertices
    273.628104,51.06924,4.572,  !- X,Y,Z ==> Vertex 1 {m}
    273.628104,51.06924,2.7432,  !- X,Y,Z ==> Vertex 2 {m}
    281.616912,51.06924,2.7432,  !- X,Y,Z ==> Vertex 3 {m}
    281.616912,51.06924,4.572;  !- X,Y,Z ==> Vertex 4 {m}

  BuildingSurface:Detailed,
    EL1 South Wall (G.N14.I53)-mirror,  !- Name
    Wall,                    !- Surface Type
    Interior Wall,           !- Construction Name
    EL1 Core Plnm (G.C20),   !- Zone Name
    ,                        !- Space Name
    Surface,                 !- Outside Boundary Condition
    EL1 South Wall (G.N14.I53)-mirror Reversed,  !- Outside Boundary Condition Object
    NoSun,                   !- Sun Exposure
    NoWind,                  !- Wind Exposure
    ,                        !- View Factor to Ground
    ,                        !- Number of Vertices
    293.5986,51.06924,4.572,  !- X,Y,Z ==> Vertex 1 {m}
    293.5986,51.06924,2.7432,  !- X,Y,Z ==> Vertex 2 {m}
    281.616912,51.06924,2.7432,  !- X,Y,Z ==> Vertex 3 {m}
    281.616912,51.06924,4.572;  !- X,Y,Z ==> Vertex 4 {m}

  BuildingSurface:Detailed,
    EL1 South Wall (G.N14.I53)-mirror Reversed,  !- Name
    Wall,                    !- Surface Type
    Interior Wall,           !- Construction Name
    EL1 North Perim Plnm (G.N14),  !- Zone Name
    ,                        !- Space Name
    Surface,                 !- Outside Boundary Condition
    EL1 South Wall (G.N14.I53)-mirror,  !- Outside Boundary Condition Object
    NoSun,                   !- Sun Exposure
    NoWind,                  !- Wind Exposure
    ,                        !- View Factor to Ground
    ,                        !- Number of Vertices
    281.616912,51.06924,4.572,  !- X,Y,Z ==> Vertex 1 {m}
    281.616912,51.06924,2.7432,  !- X,Y,Z ==> Vertex 2 {m}
    293.5986,51.06924,2.7432,  !- X,Y,Z ==> Vertex 3 {m}
    293.5986,51.06924,4.572;  !- X,Y,Z ==> Vertex 4 {m}

  BuildingSurface:Detailed,
    EL1 South Wall (G.N14.I54)-mirror,  !- Name
    Wall,                    !- Surface Type
    Interior Wall,           !- Construction Name
    EL1 Core Plnm (G.C21),   !- Zone Name
    ,                        !- Space Name
    Surface,                 !- Outside Boundary Condition
    EL1 South Wall (G.N14.I54)-mirror Reversed,  !- Outside Boundary Condition Object
    NoSun,                   !- Sun Exposure
    NoWind,                  !- Wind Exposure
    ,                        !- View Factor to Ground
    ,                        !- Number of Vertices
    297.594528,51.06924,4.572,  !- X,Y,Z ==> Vertex 1 {m}
    297.594528,51.06924,2.7432,  !- X,Y,Z ==> Vertex 2 {m}
    293.600124,51.06924,2.7432,  !- X,Y,Z ==> Vertex 3 {m}
    293.600124,51.06924,4.572;  !- X,Y,Z ==> Vertex 4 {m}

  BuildingSurface:Detailed,
    EL1 South Wall (G.N14.I54)-mirror Reversed,  !- Name
    Wall,                    !- Surface Type
    Interior Wall,           !- Construction Name
    EL1 North Perim Plnm (G.N14),  !- Zone Name
    ,                        !- Space Name
    Surface,                 !- Outside Boundary Condition
    EL1 South Wall (G.N14.I54)-mirror,  !- Outside Boundary Condition Object
    NoSun,                   !- Sun Exposure
    NoWind,                  !- Wind Exposure
    ,                        !- View Factor to Ground
    ,                        !- Number of Vertices
    293.600124,51.06924,4.572,  !- X,Y,Z ==> Vertex 1 {m}
    293.600124,51.06924,2.7432,  !- X,Y,Z ==> Vertex 2 {m}
    297.594528,51.06924,2.7432,  !- X,Y,Z ==> Vertex 3 {m}
    297.594528,51.06924,4.572;  !- X,Y,Z ==> Vertex 4 {m}

  BuildingSurface:Detailed,
    EL1 South Wall (G.N14.I55)-mirror,  !- Name
    Wall,                    !- Surface Type
    Interior Wall,           !- Construction Name
    EL1 Core Plnm (G.C22),   !- Zone Name
    ,                        !- Space Name
    Surface,                 !- Outside Boundary Condition
    EL1 South Wall (G.N14.I55)-mirror Reversed,  !- Outside Boundary Condition Object
    NoSun,                   !- Sun Exposure
    NoWind,                  !- Wind Exposure
    ,                        !- View Factor to Ground
    ,                        !- Number of Vertices
    329.32116,51.06924,4.572,  !- X,Y,Z ==> Vertex 1 {m}
    329.32116,51.06924,2.7432,  !- X,Y,Z ==> Vertex 2 {m}
    297.594528,51.06924,2.7432,  !- X,Y,Z ==> Vertex 3 {m}
    297.594528,51.06924,4.572;  !- X,Y,Z ==> Vertex 4 {m}

  BuildingSurface:Detailed,
    EL1 South Wall (G.N14.I55)-mirror Reversed,  !- Name
    Wall,                    !- Surface Type
    Interior Wall,           !- Construction Name
    EL1 North Perim Plnm (G.N14),  !- Zone Name
    ,                        !- Space Name
    Surface,                 !- Outside Boundary Condition
    EL1 South Wall (G.N14.I55)-mirror,  !- Outside Boundary Condition Object
    NoSun,                   !- Sun Exposure
    NoWind,                  !- Wind Exposure
    ,                        !- View Factor to Ground
    ,                        !- Number of Vertices
    297.594528,51.06924,4.572,  !- X,Y,Z ==> Vertex 1 {m}
    297.594528,51.06924,2.7432,  !- X,Y,Z ==> Vertex 2 {m}
    329.32116,51.06924,2.7432,  !- X,Y,Z ==> Vertex 3 {m}
    329.32116,51.06924,4.572;  !- X,Y,Z ==> Vertex 4 {m}

  BuildingSurface:Detailed,
    EL1 South Wall (G.N3.I14)-mirror,  !- Name
    Wall,                    !- Surface Type
    Interior Wall,           !- Construction Name
    Lab EL1 Core Spc (G.C5), !- Zone Name
    ,                        !- Space Name
    Surface,                 !- Outside Boundary Condition
    EL1 South Wall (G.N3.I14)-mirror Reversed,  !- Outside Boundary Condition Object
    NoSun,                   !- Sun Exposure
    NoWind,                  !- Wind Exposure
    ,                        !- View Factor to Ground
    ,                        !- Number of Vertices
    185.717688,51.06924,2.7432,  !- X,Y,Z ==> Vertex 1 {m}
    185.717688,51.06924,0,  !- X,Y,Z ==> Vertex 2 {m}
    4.572,51.06924,0,  !- X,Y,Z ==> Vertex 3 {m}
    4.572,51.06924,2.7432;  !- X,Y,Z ==> Vertex 4 {m}

  BuildingSurface:Detailed,
    EL1 South Wall (G.N3.I14)-mirror Reversed,  !- Name
    Wall,                    !- Surface Type
    Interior Wall,           !- Construction Name
    Office EL1 North Perim Spc (G.N3),  !- Zone Name
    ,                        !- Space Name
    Surface,                 !- Outside Boundary Condition
    EL1 South Wall (G.N3.I14)-mirror,  !- Outside Boundary Condition Object
    NoSun,                   !- Sun Exposure
    NoWind,                  !- Wind Exposure
    ,                        !- View Factor to Ground
    ,                        !- Number of Vertices
    4.572,51.06924,2.7432,  !- X,Y,Z ==> Vertex 1 {m}
    4.572,51.06924,0,  !- X,Y,Z ==> Vertex 2 {m}
    185.717688,51.06924,0,  !- X,Y,Z ==> Vertex 3 {m}
    185.717688,51.06924,2.7432;  !- X,Y,Z ==> Vertex 4 {m}

  BuildingSurface:Detailed,
    EL1 South Wall (G.N3.I15)-mirror,  !- Name
    Wall,                    !- Surface Type
    Interior Wall,           !- Construction Name
    Corridor EL1 Core Spc (G.C6),  !- Zone Name
    ,                        !- Space Name
    Surface,                 !- Outside Boundary Condition
    EL1 South Wall (G.N3.I15)-mirror Reversed,  !- Outside Boundary Condition Object
    NoSun,                   !- Sun Exposure
    NoWind,                  !- Wind Exposure
    ,                        !- View Factor to Ground
    ,                        !- Number of Vertices
    265.6386864,51.06924,2.7432,  !- X,Y,Z ==> Vertex 1 {m}
    265.6386864,51.06924,0,  !- X,Y,Z ==> Vertex 2 {m}
    185.717688,51.06924,0,  !- X,Y,Z ==> Vertex 3 {m}
    185.717688,51.06924,2.7432;  !- X,Y,Z ==> Vertex 4 {m}

  BuildingSurface:Detailed,
    EL1 South Wall (G.N3.I15)-mirror Reversed,  !- Name
    Wall,                    !- Surface Type
    Interior Wall,           !- Construction Name
    Office EL1 North Perim Spc (G.N3),  !- Zone Name
    ,                        !- Space Name
    Surface,                 !- Outside Boundary Condition
    EL1 South Wall (G.N3.I15)-mirror,  !- Outside Boundary Condition Object
    NoSun,                   !- Sun Exposure
    NoWind,                  !- Wind Exposure
    ,                        !- View Factor to Ground
    ,                        !- Number of Vertices
    185.717688,51.06924,2.7432,  !- X,Y,Z ==> Vertex 1 {m}
    185.717688,51.06924,0,  !- X,Y,Z ==> Vertex 2 {m}
    265.6386864,51.06924,0,  !- X,Y,Z ==> Vertex 3 {m}
    265.6386864,51.06924,2.7432;  !- X,Y,Z ==> Vertex 4 {m}

  BuildingSurface:Detailed,
    EL1 South Wall (G.N3.I16)-mirror,  !- Name
    Wall,                    !- Surface Type
    Interior Wall,           !- Construction Name
    Conference EL1 Core Spc (G.C7),  !- Zone Name
    ,                        !- Space Name
    Surface,                 !- Outside Boundary Condition
    EL1 South Wall (G.N3.I16)-mirror Reversed,  !- Outside Boundary Condition Object
    NoSun,                   !- Sun Exposure
    NoWind,                  !- Wind Exposure
    ,                        !- View Factor to Ground
    ,                        !- Number of Vertices
    273.628104,51.06924,2.7432,  !- X,Y,Z ==> Vertex 1 {m}
    273.628104,51.06924,0,  !- X,Y,Z ==> Vertex 2 {m}
    265.6386864,51.06924,0,  !- X,Y,Z ==> Vertex 3 {m}
    265.6386864,51.06924,2.7432;  !- X,Y,Z ==> Vertex 4 {m}

  BuildingSurface:Detailed,
    EL1 South Wall (G.N3.I16)-mirror Reversed,  !- Name
    Wall,                    !- Surface Type
    Interior Wall,           !- Construction Name
    Office EL1 North Perim Spc (G.N3),  !- Zone Name
    ,                        !- Space Name
    Surface,                 !- Outside Boundary Condition
    EL1 South Wall (G.N3.I16)-mirror,  !- Outside Boundary Condition Object
    NoSun,                   !- Sun Exposure
    NoWind,                  !- Wind Exposure
    ,                        !- View Factor to Ground
    ,                        !- Number of Vertices
    265.6386864,51.06924,2.7432,  !- X,Y,Z ==> Vertex 1 {m}
    265.6386864,51.06924,0,  !- X,Y,Z ==> Vertex 2 {m}
    273.628104,51.06924,0,  !- X,Y,Z ==> Vertex 3 {m}
    273.628104,51.06924,2.7432;  !- X,Y,Z ==> Vertex 4 {m}

  BuildingSurface:Detailed,
    EL1 South Wall (G.N3.I17)-mirror,  !- Name
    Wall,                    !- Surface Type
    Interior Wall,           !- Construction Name
    Computer EL1 Core Spc (G.C8),  !- Zone Name
    ,                        !- Space Name
    Surface,                 !- Outside Boundary Condition
    EL1 South Wall (G.N3.I17)-mirror Reversed,  !- Outside Boundary Condition Object
    NoSun,                   !- Sun Exposure
    NoWind,                  !- Wind Exposure
    ,                        !- View Factor to Ground
    ,                        !- Number of Vertices
    281.615388,51.06924,2.7432,  !- X,Y,Z ==> Vertex 1 {m}
    281.615388,51.06924,0,  !- X,Y,Z ==> Vertex 2 {m}
    273.628104,51.06924,0,  !- X,Y,Z ==> Vertex 3 {m}
    273.628104,51.06924,2.7432;  !- X,Y,Z ==> Vertex 4 {m}

  BuildingSurface:Detailed,
    EL1 South Wall (G.N3.I17)-mirror Reversed,  !- Name
    Wall,                    !- Surface Type
    Interior Wall,           !- Construction Name
    Office EL1 North Perim Spc (G.N3),  !- Zone Name
    ,                        !- Space Name
    Surface,                 !- Outside Boundary Condition
    EL1 South Wall (G.N3.I17)-mirror,  !- Outside Boundary Condition Object
    NoSun,                   !- Sun Exposure
    NoWind,                  !- Wind Exposure
    ,                        !- View Factor to Ground
    ,                        !- Number of Vertices
    273.628104,51.06924,2.7432,  !- X,Y,Z ==> Vertex 1 {m}
    273.628104,51.06924,0,  !- X,Y,Z ==> Vertex 2 {m}
    281.615388,51.06924,0,  !- X,Y,Z ==> Vertex 3 {m}
    281.615388,51.06924,2.7432;  !- X,Y,Z ==> Vertex 4 {m}

  BuildingSurface:Detailed,
    EL1 South Wall (G.N3.I18)-mirror,  !- Name
    Wall,                    !- Surface Type
    Interior Wall,           !- Construction Name
    Dining EL1 Core Spc (G.C9),  !- Zone Name
    ,                        !- Space Name
    Surface,                 !- Outside Boundary Condition
    EL1 South Wall (G.N3.I18)-mirror Reversed,  !- Outside Boundary Condition Object
    NoSun,                   !- Sun Exposure
    NoWind,                  !- Wind Exposure
    ,                        !- View Factor to Ground
    ,                        !- Number of Vertices
    293.5986,51.06924,2.7432,  !- X,Y,Z ==> Vertex 1 {m}
    293.5986,51.06924,0,  !- X,Y,Z ==> Vertex 2 {m}
    281.616912,51.06924,0,  !- X,Y,Z ==> Vertex 3 {m}
    281.616912,51.06924,2.7432;  !- X,Y,Z ==> Vertex 4 {m}

  BuildingSurface:Detailed,
    EL1 South Wall (G.N3.I18)-mirror Reversed,  !- Name
    Wall,                    !- Surface Type
    Interior Wall,           !- Construction Name
    Office EL1 North Perim Spc (G.N3),  !- Zone Name
    ,                        !- Space Name
    Surface,                 !- Outside Boundary Condition
    EL1 South Wall (G.N3.I18)-mirror,  !- Outside Boundary Condition Object
    NoSun,                   !- Sun Exposure
    NoWind,                  !- Wind Exposure
    ,                        !- View Factor to Ground
    ,                        !- Number of Vertices
    281.616912,51.06924,2.7432,  !- X,Y,Z ==> Vertex 1 {m}
    281.616912,51.06924,0,  !- X,Y,Z ==> Vertex 2 {m}
    293.5986,51.06924,0,  !- X,Y,Z ==> Vertex 3 {m}
    293.5986,51.06924,2.7432;  !- X,Y,Z ==> Vertex 4 {m}

  BuildingSurface:Detailed,
    EL1 South Wall (G.N3.I19)-mirror,  !- Name
    Wall,                    !- Surface Type
    Interior Wall,           !- Construction Name
    Kitchen EL1 Core Spc (G.C10),  !- Zone Name
    ,                        !- Space Name
    Surface,                 !- Outside Boundary Condition
    EL1 South Wall (G.N3.I19)-mirror Reversed,  !- Outside Boundary Condition Object
    NoSun,                   !- Sun Exposure
    NoWind,                  !- Wind Exposure
    ,                        !- View Factor to Ground
    ,                        !- Number of Vertices
    297.594528,51.06924,2.7432,  !- X,Y,Z ==> Vertex 1 {m}
    297.594528,51.06924,0,  !- X,Y,Z ==> Vertex 2 {m}
    293.600124,51.06924,0,  !- X,Y,Z ==> Vertex 3 {m}
    293.600124,51.06924,2.7432;  !- X,Y,Z ==> Vertex 4 {m}

  BuildingSurface:Detailed,
    EL1 South Wall (G.N3.I19)-mirror Reversed,  !- Name
    Wall,                    !- Surface Type
    Interior Wall,           !- Construction Name
    Office EL1 North Perim Spc (G.N3),  !- Zone Name
    ,                        !- Space Name
    Surface,                 !- Outside Boundary Condition
    EL1 South Wall (G.N3.I19)-mirror,  !- Outside Boundary Condition Object
    NoSun,                   !- Sun Exposure
    NoWind,                  !- Wind Exposure
    ,                        !- View Factor to Ground
    ,                        !- Number of Vertices
    293.600124,51.06924,2.7432,  !- X,Y,Z ==> Vertex 1 {m}
    293.600124,51.06924,0,  !- X,Y,Z ==> Vertex 2 {m}
    297.594528,51.06924,0,  !- X,Y,Z ==> Vertex 3 {m}
    297.594528,51.06924,2.7432;  !- X,Y,Z ==> Vertex 4 {m}

  BuildingSurface:Detailed,
    EL1 South Wall (G.N3.I20)-mirror,  !- Name
    Wall,                    !- Surface Type
    Interior Wall,           !- Construction Name
    Office EL1 Core Spc (G.C11),  !- Zone Name
    ,                        !- Space Name
    Surface,                 !- Outside Boundary Condition
    EL1 South Wall (G.N3.I20)-mirror Reversed,  !- Outside Boundary Condition Object
    NoSun,                   !- Sun Exposure
    NoWind,                  !- Wind Exposure
    ,                        !- View Factor to Ground
    ,                        !- Number of Vertices
    329.32116,51.06924,2.7432,  !- X,Y,Z ==> Vertex 1 {m}
    329.32116,51.06924,0,  !- X,Y,Z ==> Vertex 2 {m}
    297.594528,51.06924,0,  !- X,Y,Z ==> Vertex 3 {m}
    297.594528,51.06924,2.7432;  !- X,Y,Z ==> Vertex 4 {m}

  BuildingSurface:Detailed,
    EL1 South Wall (G.N3.I20)-mirror Reversed,  !- Name
    Wall,                    !- Surface Type
    Interior Wall,           !- Construction Name
    Office EL1 North Perim Spc (G.N3),  !- Zone Name
    ,                        !- Space Name
    Surface,                 !- Outside Boundary Condition
    EL1 South Wall (G.N3.I20)-mirror,  !- Outside Boundary Condition Object
    NoSun,                   !- Sun Exposure
    NoWind,                  !- Wind Exposure
    ,                        !- View Factor to Ground
    ,                        !- Number of Vertices
    297.594528,51.06924,2.7432,  !- X,Y,Z ==> Vertex 1 {m}
    297.594528,51.06924,0,  !- X,Y,Z ==> Vertex 2 {m}
    329.32116,51.06924,0,  !- X,Y,Z ==> Vertex 3 {m}
    329.32116,51.06924,2.7432;  !- X,Y,Z ==> Vertex 4 {m}

  BuildingSurface:Detailed,
    EL1 South Wall (G.S1.E1),!- Name
    Wall,                    !- Surface Type
    Exterior Wall,           !- Construction Name
    Office EL1 South Perim Spc (G.S1),  !- Zone Name
    ,                        !- Space Name
    Outdoors,                !- Outside Boundary Condition
    ,                        !- Outside Boundary Condition Object
    SunExposed,              !- Sun Exposure
    WindExposed,             !- Wind Exposure
    ,                        !- View Factor to Ground
    ,                        !- Number of Vertices
    0,0,2.7432,  !- X,Y,Z ==> Vertex 1 {m}
    0,0,0,  !- X,Y,Z ==> Vertex 2 {m}
    333.89316,0,0,  !- X,Y,Z ==> Vertex 3 {m}
    333.89316,0,2.7432;  !- X,Y,Z ==> Vertex 4 {m}

  BuildingSurface:Detailed,
    EL1 South Wall (G.S12.E5),  !- Name
    Wall,                    !- Surface Type
    Exterior Wall,           !- Construction Name
    EL1 South Perim Plnm (G.S12),  !- Zone Name
    ,                        !- Space Name
    Outdoors,                !- Outside Boundary Condition
    ,                        !- Outside Boundary Condition Object
    SunExposed,              !- Sun Exposure
    WindExposed,             !- Wind Exposure
    ,                        !- View Factor to Ground
    ,                        !- Number of Vertices
    0,0,4.572,  !- X,Y,Z ==> Vertex 1 {m}
    0,0,2.7432,  !- X,Y,Z ==> Vertex 2 {m}
    333.89316,0,2.7432,  !- X,Y,Z ==> Vertex 3 {m}
    333.89316,0,4.572;  !- X,Y,Z ==> Vertex 4 {m}

  BuildingSurface:Detailed,
    EL1 West Wall (G.E13.I47)-mirror,  !- Name
    Wall,                    !- Surface Type
    Interior Wall,           !- Construction Name
    EL1 Core Plnm (G.C22),   !- Zone Name
    ,                        !- Space Name
    Surface,                 !- Outside Boundary Condition
    EL1 West Wall (G.E13.I47)-mirror Reversed,  !- Outside Boundary Condition Object
    NoSun,                   !- Sun Exposure
    NoWind,                  !- Wind Exposure
    ,                        !- View Factor to Ground
    ,                        !- Number of Vertices
    329.32116,4.572,4.572,  !- X,Y,Z ==> Vertex 1 {m}
    329.32116,4.572,2.7432,  !- X,Y,Z ==> Vertex 2 {m}
    329.32116,51.06924,2.7432,  !- X,Y,Z ==> Vertex 3 {m}
    329.32116,51.06924,4.572;  !- X,Y,Z ==> Vertex 4 {m}

  BuildingSurface:Detailed,
    EL1 West Wall (G.E13.I47)-mirror Reversed,  !- Name
    Wall,                    !- Surface Type
    Interior Wall,           !- Construction Name
    EL1 East Perim Plnm (G.E13),  !- Zone Name
    ,                        !- Space Name
    Surface,                 !- Outside Boundary Condition
    EL1 West Wall (G.E13.I47)-mirror,  !- Outside Boundary Condition Object
    NoSun,                   !- Sun Exposure
    NoWind,                  !- Wind Exposure
    ,                        !- View Factor to Ground
    ,                        !- Number of Vertices
    329.32116,51.06924,4.572,  !- X,Y,Z ==> Vertex 1 {m}
    329.32116,51.06924,2.7432,  !- X,Y,Z ==> Vertex 2 {m}
    329.32116,4.572,2.7432,  !- X,Y,Z ==> Vertex 3 {m}
    329.32116,4.572,4.572;  !- X,Y,Z ==> Vertex 4 {m}

  BuildingSurface:Detailed,
    EL1 West Wall (G.E2.I11)-mirror,  !- Name
    Wall,                    !- Surface Type
    Interior Wall,           !- Construction Name
    Office EL1 Core Spc (G.C11),  !- Zone Name
    ,                        !- Space Name
    Surface,                 !- Outside Boundary Condition
    EL1 West Wall (G.E2.I11)-mirror Reversed,  !- Outside Boundary Condition Object
    NoSun,                   !- Sun Exposure
    NoWind,                  !- Wind Exposure
    ,                        !- View Factor to Ground
    ,                        !- Number of Vertices
    329.32116,4.572,2.7432,  !- X,Y,Z ==> Vertex 1 {m}
    329.32116,4.572,0,  !- X,Y,Z ==> Vertex 2 {m}
    329.32116,51.06924,0,  !- X,Y,Z ==> Vertex 3 {m}
    329.32116,51.06924,2.7432;  !- X,Y,Z ==> Vertex 4 {m}

  BuildingSurface:Detailed,
    EL1 West Wall (G.E2.I11)-mirror Reversed,  !- Name
    Wall,                    !- Surface Type
    Interior Wall,           !- Construction Name
    Office EL1 East Perim Spc (G.E2),  !- Zone Name
    ,                        !- Space Name
    Surface,                 !- Outside Boundary Condition
    EL1 West Wall (G.E2.I11)-mirror,  !- Outside Boundary Condition Object
    NoSun,                   !- Sun Exposure
    NoWind,                  !- Wind Exposure
    ,                        !- View Factor to Ground
    ,                        !- Number of Vertices
    329.32116,51.06924,2.7432,  !- X,Y,Z ==> Vertex 1 {m}
    329.32116,51.06924,0,  !- X,Y,Z ==> Vertex 2 {m}
    329.32116,4.572,0,  !- X,Y,Z ==> Vertex 3 {m}
    329.32116,4.572,2.7432;  !- X,Y,Z ==> Vertex 4 {m}

  BuildingSurface:Detailed,
    EL1 West Wall (G.W15.E11),  !- Name
    Wall,                    !- Surface Type
    Exterior Wall,           !- Construction Name
    EL1 West Perim Plnm (G.W15),  !- Zone Name
    ,                        !- Space Name
    Outdoors,                !- Outside Boundary Condition
    ,                        !- Outside Boundary Condition Object
    SunExposed,              !- Sun Exposure
    WindExposed,             !- Wind Exposure
    ,                        !- View Factor to Ground
    ,                        !- Number of Vertices
    0,55.64124,4.572,  !- X,Y,Z ==> Vertex 1 {m}
    0,55.64124,2.7432,  !- X,Y,Z ==> Vertex 2 {m}
    0,0,2.7432,  !- X,Y,Z ==> Vertex 3 {m}
    0,0,4.572;  !- X,Y,Z ==> Vertex 4 {m}

  BuildingSurface:Detailed,
    EL1 West Wall (G.W4.E4), !- Name
    Wall,                    !- Surface Type
    Exterior Wall,           !- Construction Name
    Office EL1 West Perim Spc (G.W4),  !- Zone Name
    ,                        !- Space Name
    Outdoors,                !- Outside Boundary Condition
    ,                        !- Outside Boundary Condition Object
    SunExposed,              !- Sun Exposure
    WindExposed,             !- Wind Exposure
    ,                        !- View Factor to Ground
    ,                        !- Number of Vertices
    0,55.64124,2.7432,  !- X,Y,Z ==> Vertex 1 {m}
    0,55.64124,0,  !- X,Y,Z ==> Vertex 2 {m}
    0,0,0,  !- X,Y,Z ==> Vertex 3 {m}
    0,0,2.7432;  !- X,Y,Z ==> Vertex 4 {m}

  FenestrationSurface:Detailed,
    EL1 East Win (G.E2.E2.W1),  !- Name
    Window,                  !- Surface Type
    Exterior Window,         !- Construction Name
    EL1 East Wall (G.E2.E2), !- Building Surface Name
    ,                        !- Outside Boundary Condition Object
    ,                        !- View Factor to Ground
    ,                        !- Frame and Divider Name
    ,                        !- Multiplier
    ,                        !- Number of Vertices
    333.89316,11.128248,2.286,  !- X,Y,Z ==> Vertex 1 {m}
    333.89316,11.128248,1.3716,  !- X,Y,Z ==> Vertex 2 {m}
    333.89316,44.512992,1.3716,  !- X,Y,Z ==> Vertex 3 {m}
    333.89316,44.512992,2.286;  !- X,Y,Z ==> Vertex 4 {m}

  FenestrationSurface:Detailed,
    EL1 North Win (G.N3.E3.W1),  !- Name
    Window,                  !- Surface Type
    Exterior Window,         !- Construction Name
    EL1 North Wall (G.N3.E3),!- Building Surface Name
    ,                        !- Outside Boundary Condition Object
    ,                        !- View Factor to Ground
    ,                        !- Frame and Divider Name
    ,                        !- Multiplier
    ,                        !- Number of Vertices
    267.114528,55.64124,2.286,  !- X,Y,Z ==> Vertex 1 {m}
    267.114528,55.64124,1.3716,  !- X,Y,Z ==> Vertex 2 {m}
    66.778632,55.64124,1.3716,  !- X,Y,Z ==> Vertex 3 {m}
    66.778632,55.64124,2.286;  !- X,Y,Z ==> Vertex 4 {m}

  FenestrationSurface:Detailed,
    EL1 South Win (G.S1.E1.W1),  !- Name
    Window,                  !- Surface Type
    Exterior Window,         !- Construction Name
    EL1 South Wall (G.S1.E1),!- Building Surface Name
    ,                        !- Outside Boundary Condition Object
    ,                        !- View Factor to Ground
    ,                        !- Frame and Divider Name
    ,                        !- Multiplier
    ,                        !- Number of Vertices
    66.778632,0,2.286,  !- X,Y,Z ==> Vertex 1 {m}
    66.778632,0,1.3716,  !- X,Y,Z ==> Vertex 2 {m}
    267.114528,0,1.3716,  !- X,Y,Z ==> Vertex 3 {m}
    267.114528,0,2.286;  !- X,Y,Z ==> Vertex 4 {m}

  FenestrationSurface:Detailed,
    EL1 West Win (G.W4.E4.W1),  !- Name
    Window,                  !- Surface Type
    Exterior Window,         !- Construction Name
    EL1 West Wall (G.W4.E4), !- Building Surface Name
    ,                        !- Outside Boundary Condition Object
    ,                        !- View Factor to Ground
    ,                        !- Frame and Divider Name
    ,                        !- Multiplier
    ,                        !- Number of Vertices
    0,44.512992,2.286,  !- X,Y,Z ==> Vertex 1 {m}
    0,44.512992,1.3716,  !- X,Y,Z ==> Vertex 2 {m}
    0,11.128248,1.3716,  !- X,Y,Z ==> Vertex 3 {m}
    0,11.128248,2.286;  !- X,Y,Z ==> Vertex 4 {m}

  Construction:FfactorGroundFloor,
    EL1 Flr (G.C10.U10) SlabOnOrBelowGradeF073,  !- Name
    1.26343630645111,        !- F-Factor {W/m-K}
    185.799623238722,        !- Area {m2}
    0;                       !- PerimeterExposed {m}

  Construction:FfactorGroundFloor,
    EL1 Flr (G.C11.U11) SlabOnOrBelowGradeF073,  !- Name
    1.26343630645111,        !- F-Factor {W/m-K}
    1475.12996070192,        !- Area {m2}
    0;                       !- PerimeterExposed {m}

  Construction:FfactorGroundFloor,
    EL1 Flr (G.C5.U5) SlabOnOrBelowGradeF073,  !- Name
    1.26343630645111,        !- F-Factor {W/m-K}
    8422.77452990112,        !- Area {m2}
    0;                       !- PerimeterExposed {m}

  Construction:FfactorGroundFloor,
    EL1 Flr (G.C6.U6) SlabOnOrBelowGradeF073,  !- Name
    1.26343630645111,        !- F-Factor {W/m-K}
    3716.13418836192,        !- Area {m2}
    0;                       !- PerimeterExposed {m}

  Construction:FfactorGroundFloor,
    EL1 Flr (G.C7.U7) SlabOnOrBelowGradeF073,  !- Name
    1.26343630645111,        !- F-Factor {W/m-K}
    371.485867607425,        !- Area {m2}
    0;                       !- PerimeterExposed {m}

  Construction:FfactorGroundFloor,
    EL1 Flr (G.C8.U8) SlabOnOrBelowGradeF073,  !- Name
    1.26343630645111,        !- F-Factor {W/m-K}
    371.386661096159,        !- Area {m2}
    0;                       !- PerimeterExposed {m}

  Construction:FfactorGroundFloor,
    EL1 Flr (G.C9.U9) SlabOnOrBelowGradeF073,  !- Name
    1.26343630645111,        !- F-Factor {W/m-K}
    557.25714612864,         !- Area {m2}
    0;                       !- PerimeterExposed {m}

  Construction:FfactorGroundFloor,
    EL1 Flr (G.E2.U2) SlabOnOrBelowGradeF073,  !- Name
    1.26343630645111,        !- F-Factor {W/m-K}
    233.48856528,            !- Area {m2}
    55.64124;                !- PerimeterExposed {m}

  Construction:FfactorGroundFloor,
    EL1 Flr (G.N3.U3) SlabOnOrBelowGradeF073,  !- Name
    1.26343630645111,        !- F-Factor {W/m-K}
    1505.65634352,           !- Area {m2}
    333.89316;               !- PerimeterExposed {m}

  Construction:FfactorGroundFloor,
    EL1 Flr (G.S1.U1) SlabOnOrBelowGradeF073,  !- Name
    1.26343630645111,        !- F-Factor {W/m-K}
    1505.65634352,           !- Area {m2}
    333.89316;               !- PerimeterExposed {m}

  Construction:FfactorGroundFloor,
    EL1 Flr (G.W4.U4) SlabOnOrBelowGradeF073,  !- Name
    1.26343630645111,        !- F-Factor {W/m-K}
    233.48856528,            !- Area {m2}
    55.64124;                !- PerimeterExposed {m}

