Version, 22.2;
! Inventory of EnergyPlus Objects in this Template, 
! and whether manual check/update is required
!-------------------------------------------------------------------------
!  | EnergyPlus 						| Manual |
!  | Object Name						| Update |
!-------------------------------------------------------------------------
!  | AirLoopHVAC:UnitarySystem					|        |
!  | Schedule:Compact						|   X    |
!  | Fan:OnOff							|        |
!  | Fan:SystemModel						|        |
!  | Curve:Quartic						|        |
!  | Fan:VariableVolume						|        |
!  | Coil:Cooling:DX:SingleSpeed				|        |
!  | Curve:Biquadratic						|        |
!  | Curve:Quadratic						|        |
!  | Curve:Cubic						|        |
!  | Coil:Cooling:DX:MultiSpeed					|        |
!  | Coil:Cooling:WaterToAirHeatPump:EquationFit		|        |
!  | Curve:QuadLinear						|        |
!  | Coil:Cooling:WaterToAirHeatPump:VariableSpeedEquationFit	|        |
!  | Coil:Cooling:Water						|        |
!  | Branch							|        |
!  | Coil:Heating:Fuel						|        |
!  | Coil:Heating:Gas:MultiStage				|        |
!  | Coil:Heating:Electric					|        |
!  | Coil:Heating:DX:SingleSpeed				|        |
!  | Coil:Heating:DX:MultiSpeed					|        |
!  | Coil:Heating:WaterToAirHeatPump:EquationFit		|        |
!  | Coil:Heating:WaterToAirHeatPump:VariableSpeedEquationFit	|        |
!  | Coil:Heating:Water						|        |
!  | Coil:Heating:Steam						|        |
!  | Coil:Heating:Fuel						|        |
!  | Coil:Heating:Electric					|        |
!  | UnitarySystemPerformance:Multispeed			|        |
!  | EnergyManagementSystem:Actuator				|        |
!  | EnergyManagementSystem:ProgramCallingManager		|        |
!  | EnergyManagementSystem:Program				|        |
!  | EnergyManagementSystem:InternalVariableXZ			|        |
!-------------------------------------------------------------------------
!
!x!<%#INITIALIZE
!x!require "modelkit/energyplus"
!x!
!x!parameter "unitary_name"
!x!
!x!parameter "doas", :default => false
!x!parameter "control_zone_name", :default => ""
!x!
!x!parameter "op_sch", :default => "Through: 12/31,\n  For: AllDays,\n  Until: 24:00, 1;"
!x!
!x!parameter "fan_type", :default => "SYSTEM-MODEL" # (ON-OFF | VAV | SYSTEM-MODEL )
!x!parameter "fan_speed", :default => "CONSTANT"  # (CONSTANT | DUAL| VARIABLE)  Fan:SystemModel allows multi-speed => DUAL
!x!parameter "fan_curve", :default => "T24"  # TRC: Added existing parameter to this template (MZVAV-FC | MZVAV-VSD | T24) 
!x!parameter "fan_sizing_method", :default => "TotalEfficiencyAndPressure" # (only relevant when fan_type = "SYSTEM-MODEL". Options: PowerPerFlow | PowerPerFlowPerPressure | TotalEfficiencyAndPressure )
!x!parameter "fan_power_per_flow", :default => 0.85['W/CFM']  # (only relevant when fan_type = "SYSTEM-MODEL" and fan_sizing_method = "PowerPerFlow")
!x!parameter "fan_power_per_flow_pressure", :default => 1.67  # W/((m3/s)-Pa) (only relevant when fan_type = "SYSTEM-MODEL" and fan_sizing_method = "PowerPerFlowPerPressure")
!x!parameter "fan_low_speed_flow_frac", :default => 0.66 # (only relevant when fan_type = "SYSTEM-MODEL" and fan_speed = "DUAL")
!x!parameter "fan_low_speed_power_frac", :default => 0.4 # (only relevant when fan_type = "SYSTEM-MODEL" and fan_speed = "DUAL")
!x!
!x!#TRC - "SWHC023-05" measure: Adding the following variables to parameterize the multi-speed operation air flow ratio and associated supply fan power for UnitarySystems
!x!parameter "low_heating_supply_air_ratio", :default => 0.75
!x!parameter "low_cooling_supply_air_ratio", :default => 0.75
!x!parameter "ventilation_supply_air_ratio", :default => 0.4
!x!parameter "constant_fan_speed_power_frac", :default => 1
!x!parameter "fan_speed_1_flow_frac", :default => 0.4
!x!parameter "fan_speed_1_power_frac", :default => 0.124709051
!x!parameter "fan_speed_2_flow_frac", :default => 0.75
!x!parameter "fan_speed_2_power_frac", :default => 0.463912917
!x!parameter "fan_speed_3_flow_frac", :default => 1
!x!parameter "fan_speed_3_power_frac", :default => 1
!x!parameter "single_mode_operation", :default => "No"
!x!
!x!parameter "fan_config", :default => "DRAW-THROUGH"  # (DRAW-THROUGH | BLOW-THROUGH)
!x!parameter "fan_mode", :default => "CYCLING"  # (CYCLING | CONTINUOUS | SCHEDULE)  # If fan_mode is SCHEDULE, fan_mode_sch cannot be empty.
!x!parameter "fan_mode_sch", :default => ""  # 0 means cycling; 1 means continuous
!x!
!x!rule "fan_mode_cycling", :parameters => {:fan_mode => "CYCLING"} do
!x!  force :fan_mode_sch => "Through: 12/31,\n  For: AllDays,\n  Until: 24:00, 0;"
!x!end
!x!
!x!rule "fan_mode_continuous", :parameters => {:fan_mode => "CONTINUOUS"} do
!x!  force :fan_mode_sch => "Through: 12/31,\n  For: AllDays,\n  Until: 24:00, 1;"
!x!end
!x!
!x!rule "fan_speed_dual", :parameters => {:fan_speed => "DUAL"} do
!x!  force :dx_comp_speed => "DUAL-EQUAL" # 2-speed fans require 2-speed/multispeed cooling coils to operate correctly
!x!end
!x!
!x!#G3.1.3.1 The systems shall be controlled to energize auxiliary heat only when the
!x!#outdoor air temperature is less than 40°F.
!x!
!x!parameter "fan_rise", :default => 0.5['in H2O']
!x!parameter "fan_eff", :name => "Supply Fan Efficiency", :description => "Total efficiency of supply fan",
!x!  :default => 0.65, :domain => Numeric  # Interval 0-1
!x!parameter "fan_motor_eff", :default => 0.85  # Efficiency of supply fan motor. Look up ASHRAE 90.1 Table 10.8-2
!x!parameter "fan_motor_frac", :default => 1.0  # Fraction of motor heat to air stream (zero means completely outside air stream)
!x!
!x!parameter "fan_flow",
!x!  :default => Autosize, :domain => Quantity
!x!
!x!parameter "fan_flow_min_method", :default=>"Fraction"
!x!parameter "fan_flow_min_frac", :default => 0.25  # For VARIABLE fan systems only
!x!parameter "fan_flow_min", :default=>0 # Fan Power Minimum Air Flow Rate (relevant when fan_flow_min_method = "FixedFlowRate")
!x!parameter "fan_subcat", :default => "Unitary Fans"  # End-use subcategory for the fan
!x!
!x!  # need fan_min_flow, fan_max_flow  ??   for VAV;  relates to fan_flow_min_frac obviously:  frac = min ÷ max
!x!
!x!parameter "cool_coil_type", :default => "DX-AIR"  # (DX-AIR | DX-EVAP | DX-WATER | WATER | NONE)
!x!parameter "cool_coil_cap", :default => Autosize
!x!parameter "cool_coil_cop", :default => 3.23
!x!parameter "cool_coil_evap_eff", :default => 0.9  # Evaporative Condenser Effectiveness
!x!
!x!#TRC - Add cool_flow_min_frac as the minimum flow ratio in cooling in the sizing:zone object and the UnitarySystem.
!x!#Differs from ATU_flow_min_frac because it cannot be autosized and it doesn't override the ventilation requirement.
!x!parameter "cool_flow_min_frac", :name => "Cooling Minimum Air Flow Fraction",:description => "Cooling Minimum Air Flow Fraction used in sizing:zone object",:default => nil
!x!#TRC - Add unitary_no_load_flow_method to parameterize the sizing of the no load (minimum) flow for UnitarySystems with DX cooling
!x!parameter "unitary_no_load_flow_method", :name => "No Load Supply Air Flow Rate Method",:description => "No Load Supply Air Flow Rate Method in AirLoopHVAC:UnitarySysteem",:default => "SupplyAirFlowRate"
!x!
!x!
!x!parameter "heat_coil_type", :default => "COMBUSTION"  # (COMBUSTION | RESISTANCE | DX-AIR | DX-WATER | WATER | STEAM | NONE)
!x!parameter "heat_coil_cap", :default => Autosize
!x!parameter "heat_coil_cop", :default => 3.23
!x!parameter "heat_coil_eff", :default => 0.8
!x!parameter "heat_coil_fuel", :default => "NaturalGas"  # (NaturalGas | Propane | ...)
!x!
!x!# should these be:
!x!#   coil_heat___
!x!#   coil_cool___
!x!#   coil_aux___     coil_supp___   coil_sec___
!x!
!x!# YES
!x!
!x!
!x!parameter "heat_coil_sizing_ratio",  # Only for ASHP or WSHP
!x!  :default => 1.0, :domain => Numeric
!x!
!x!
!x!#dx_min_temp  Minimum Outdoor Dry-Bulb Temperature for Compressor Operation (C)
!x!
!x!# add these to the rules:
!x!parameter "hp_min_temp", :default => 10.04['F']  # Only for ASHP
!x!parameter "hp_defrost_temp", :default => 35['F']  # Only for ASHP
!x!
!x!
!x!# ASHP only?  or can we call this hp_
!x!parameter "ashp_aux_heat_max_temp", :default => 40['F']
!x!parameter "ashp_supply_max_temp", :default => Autosize  # was 105['F']  # same as sat_max_temp?
!x!
!x!
!x!
!x!parameter "dx_type",  # Used to set performance curves; SPLIT only applies to variable-speed compressor; TERMINAL only applies to constant-speed compressor.
!x!  :default => "PNNL"  # (PACKAGED | SPLIT | TERMINAL)
!x!parameter "dx_comp_speed", :default => "CONSTANT"  # (CONSTANT | DUAL | VARIABLE)
!x!parameter "dx_crankcase_max_temp", :default => 4.4['C']
!x!parameter "dx_crankcase_cap", :default => 50['W']
!x!
!x!#   coil_dx_type
!x!#   coil_dx_comp_speed!!x!#   coil_hp_min_temp   etc.
!x!
!x!parameter "aux_heat_coil_type", :default => "NONE"  # (COMBUSTION | RESISTANCE | NONE)
!x!parameter "aux_heat_coil_cap", :default => Autosize
!x!parameter "aux_heat_coil_eff", :default => 0.8
!x!parameter "aux_heat_coil_fuel", :default => "NaturalGas"  # (NaturalGas | Propane | ...)
!x!
!x!
!x!rule "cool_coil_type_dx_air", :parameters => {:cool_coil_type => "DX-AIR"} do
!x!  default :cool_coil_cop => 3.0
!x!  disable :cool_coil_evap_eff
!x!end
!x!
!x!rule "cool_coil_type_dx_evap", :parameters => {:cool_coil_type => "DX-EVAP"} do
!x!  default :cool_coil_cop => 3.3
!x!  default :cool_coil_evap_eff => 0.9
!x!end
!x!
!x!rule "cool_coil_type_dx_water", :parameters => {:cool_coil_type => "DX-WATER"} do
!x!  default :cool_coil_cop => 3.7
!x!  disable :cool_coil_evap_eff
!x!end
!x!
!x!rule "cool_coil_type_water", :parameters => {:cool_coil_type => "WATER"} do
!x!  disable :cool_coil_cop
!x!  disable :cool_coil_evap_eff
!x!end
!x!
!x!rule "cool_coil_type_none", :parameters => {:cool_coil_type => "NONE"} do
!x!  disable :cool_coil_cop
!x!  disable :cool_coil_evap_eff
!x!  disable :cool_coil_cap
!x!end
!x!
!x!rule "heat_coil_type_combustion", :parameters => {:heat_coil_type => "COMBUSTION"} do
!x!  default :heat_coil_eff => 0.8
!x!  #disable :heat_coil_cop  # do not use temporarily until rule override in import
!x!  default :heat_coil_fuel => "NaturalGas"
!x!end
!x!
!x!rule "heat_coil_type_resistance", :parameters => {:heat_coil_type => "RESISTANCE"} do
!x!  default :heat_coil_eff => 0.98
!x!  disable :heat_coil_cop
!x!  disable :heat_coil_fuel
!x!end
!x!
!x!
!x!rule "heat_coil_type_dx_water", :parameters => {:heat_coil_type => "DX-WATER"} do
!x!  disable :heat_coil_eff
!x!  default :heat_coil_cop => 3.2
!x!  disable :heat_coil_fuel
!x!end
!x!
!x!rule "heat_coil_type_water", :parameters => {:heat_coil_type => "WATER"} do
!x!  disable :heat_coil_eff
!x!  disable :heat_coil_cop
!x!  disable :heat_coil_fuel
!x!end
!x!
!x!rule "heat_coil_type_steam", :parameters => {:heat_coil_type => "STEAM"} do
!x!  disable :heat_coil_eff
!x!  disable :heat_coil_cop
!x!  disable :heat_coil_fuel
!x!end
!x!
!x!rule "heat_coil_type_none", :parameters => {:heat_coil_type => "NONE"} do
!x!  disable :heat_coil_eff
!x!  disable :heat_coil_cop
!x!  disable :heat_coil_fuel
!x!  disable :heat_coil_cap
!x!  force :aux_heat_coil_type => "NONE"
!x!end
!x!
!x!
!x!rule "aux_heat_coil_type_combustion", :parameters => {:aux_heat_coil_type => "COMBUSTION"} do
!x!  default :aux_heat_coil_eff => 0.8
!x!  default :aux_heat_coil_fuel => "NaturalGas"
!x!end
!x!
!x!rule "aux_heat_coil_type_resistance", :parameters => {:aux_heat_coil_type => "RESISTANCE"} do
!x!  default :aux_heat_coil_eff => 1.0
!x!  disable :aux_heat_coil_fuel
!x!end
!x!
!x!rule "aux_heat_coil_type_none", :parameters => {:aux_heat_coil_type => "NONE"} do
!x!  disable :aux_heat_coil_eff
!x!  disable :aux_heat_coil_fuel
!x!  disable :aux_heat_coil_cap
!x!end
!x!
!x!parameter "sat_temp_max", :default => Autosize
!x!#  Autosizing both of these eliminates a warning: this value was not matching the Sizing:System or Sizing:Zone supply temps
!x!
!x!  # interesting these are AHU only
!x!  # what about SAT for ZN-* systems? e.g., PTAC
!x!# UnitarySystem has:
!x!#   Minimum Supply Air Temperature {C}  if DOAS = Yes, this is like a defrost min temp; means something else for SingleZoneVAV
!x!#   Maximum Supply Air Temperature {C}  default 80 C; ~ same as terminal max heating temp; SingleZoneVAV is more specific
!x!
!x!
!x!parameter "clear_water_storage_tank", :default => ""  # Name of tank for collecting cooling coil condensate
!x!
!x!parameter "disable_ems", :default => false, :type => "Enumeration", :valuelist => "true,false"
!x!
!x!%>
!x!
!x!<%
!x!if (control_zone_name.empty?)
!x!  control_type = "Setpoint"
!x!
!x!# TRC - enable variable speed operation for cPVVG system type
!x!elsif ((fan_speed == "VARIABLE") && (heat_coil_type == "WATER" || (heat_coil_type == "DX-AIR" && dx_comp_speed == "CONSTANT")) && (cool_coil_type == "WATER" || (cool_coil_type == "DX-AIR" || dx_comp_speed == "CONSTANT")))
!x!  control_type = "SingleZoneVAV"
!x!else
!x!  control_type = "Load"
!x!end
!x!
!x!if fan_mode_sch == "" and fan_mode == "SCHEDULE"
!x!  fan_mode_sch = op_sch
!x!end
!x!
!x!if (dx_comp_speed == "CONSTANT")
!x!  dx_comp_speed_num = 1
!x!  cool_coil_cd = 0.07
!x!  cool_coil_cop_1 = cool_coil_cop
!x!  if heat_coil_type.include?("DX")
!x!    heat_coil_cd = 0.11
!x!    heat_coil_cop_1 = heat_coil_cop
!x!  end
!x!elsif (dx_comp_speed == "TWO-SPEED")
!x!  dx_comp_speed_num = 2
!x!  cool_coil_cd = 0
!x!  cool_coil_cop_1 = cool_coil_cop * 1.0148883375
!x!  cool_coil_cop_2 = cool_coil_cop 
!x!  if heat_coil_type.include?("DX")
!x!    heat_coil_cd = 0
!x!    heat_coil_cop_1 = heat_coil_cop * 1.0148883375
!x!    heat_coil_cop_2 = heat_coil_cop
!x!  end
!x!elsif (dx_comp_speed == "DUAL")
!x!  dx_comp_speed_num = 2
!x!  cool_coil_cd = 0.11
!x!  cool_coil_cop_1 = cool_coil_cop / 0.9
!x!  cool_coil_cop_2 = cool_coil_cop
!x!  if heat_coil_type.include?("DX")
!x!    heat_coil_cd = 0.11
!x!    heat_coil_cop_1 = heat_coil_cop / 0.9
!x!    heat_coil_cop_2 = heat_coil_cop
!x!  end
!x!elsif (dx_comp_speed == "DUAL-EQUAL")
!x!  dx_comp_speed_num = 2
!x!  cool_coil_cd = 0.25
!x!  cool_coil_cop_1 = cool_coil_cop
!x!  cool_coil_cop_2 = cool_coil_cop
!x!  if heat_coil_type.include?("DX")
!x!    heat_coil_cd = 0.11
!x!    heat_coil_cop_1 = heat_coil_cop / 0.9
!x!    heat_coil_cop_2 = heat_coil_cop
!x!  end
!x!elsif (dx_comp_speed == "VARIABLE")
!x!  dx_comp_speed_num = 4
!x!  cool_coil_cd = 0.25
!x!  cool_coil_cop_1 = cool_coil_cop / 0.7
!x!  cool_coil_cop_2 = cool_coil_cop / 0.75
!x!  cool_coil_cop_3 = cool_coil_cop / 0.9
!x!  cool_coil_cop_4 = cool_coil_cop
!x!  if heat_coil_type.include?("DX")
!x!    heat_coil_cd = 0.24
!x!    heat_coil_cop_1 = heat_coil_cop / 0.7
!x!    heat_coil_cop_2 = heat_coil_cop / 0.75
!x!    heat_coil_cop_3 = heat_coil_cop / 0.9
!x!    heat_coil_cop_4 = heat_coil_cop
!x!  end
!x!end
!x!
!x!%>
!x!<% # NOTE: No need to include availability schedule on UnitarySystem -- fan schedules can be specified in the fan objects, and PNNL models all have continuous availability for unitarysystems
!x!# Need continuous availability for night cycle to work properly
!x!%>
!x!
!x!<% if (fan_type == "ON-OFF") 
!x!  iv_sup_fan_obj = "Fan:OnOff"
!x!elsif (fan_type == "SYSTEM-MODEL")
!x!  iv_sup_fan_obj = "Fan:SystemModel"
!x!elsif (fan_type == "VAV") 
!x!  iv_sup_fan_obj = "Fan:VariableVolume"
!x!end %>
!x!
!x!<% if (fan_config == "DRAW-THROUGH")
!x!  iv_fan_placement = "DrawThrough"
!x!elsif (fan_config == "BLOW-THROUGH")
!x!  iv_fan_placement = "BlowThrough"
!x!else
!x!  iv_fan_placement = "BlowThrough"
!x!end %>

!x!<% if (heat_coil_type == "COMBUSTION")
!x!  iv_heat_coil_obj = "Coil:Heating:Fuel"
!x!  iv_heat_coil_nm = unitary_name + " Heating Coil"
!x!  iv_dx_heat_coil_szratio = ""
!x!elsif (heat_coil_type == "RESISTANCE")
!x!  iv_heat_coil_obj = "Coil:Heating:Electric"
!x!  iv_heat_coil_nm = unitary_name + " Heating Coil"
!x!  iv_dx_heat_coil_szratio = ""
!x!elsif (heat_coil_type == "DX-AIR")
!x! if (dx_comp_speed_num == 1)
!x!  iv_heat_coil_obj = "Coil:Heating:DX:SingleSpeed"
!x!  iv_heat_coil_nm = unitary_name + " Heating Coil"
!x!  iv_dx_heat_coil_szratio = heat_coil_sizing_ratio
!x! elsif (dx_comp_speed_num > 1)
!x!  iv_heat_coil_obj = "Coil:Heating:DX:MultiSpeed"
!x!  iv_heat_coil_nm = unitary_name + " Heating Coil"
!x!  iv_dx_heat_coil_szratio = heat_coil_sizing_ratio
!x! end
!x!elsif (heat_coil_type == "DX-WATER")
!x!  if dx_comp_speed_num == 1
!x!   iv_heat_coil_obj = "Coil:Heating:WaterToAirHeatPump:EquationFit"
!x!  elsif dx_comp_speed_num > 1
!x!   iv_heat_coil_obj = "Coil:Heating:WaterToAirHeatPump:VariableSpeedEquationFit"
!x!  end
!x!  iv_heat_coil_nm = unitary_name + " Heating Coil"
!x!  iv_dx_heat_coil_szratio = heat_coil_sizing_ratio
!x!elsif (heat_coil_type == "WATER")
!x!  iv_heat_coil_obj = "Coil:Heating:Water"
!x!  iv_heat_coil_nm = unitary_name + " Heating Coil"
!x!  iv_dx_heat_coil_szratio = ""
!x!elsif (heat_coil_type == "STEAM")
!x!  iv_heat_coil_obj = "Coil:Heating:Steam"
!x!  iv_heat_coil_nm = unitary_name + " Heating Coil"
!x!  iv_dx_heat_coil_szratio = ""
!x!elsif (heat_coil_type == "NONE")
!x!  iv_heat_coil_obj = ""
!x!  iv_heat_coil_nm = ""
!x!  iv_dx_heat_coil_szratio = ""
!x!elsif (heat_coil_type == "MULTI-STAGE-GAS")
!x!  iv_heat_coil_obj = "Coil:Heating:Gas:MultiStage"
!x!  iv_heat_coil_nm = unitary_name + " Heating Coil"
!x!  iv_dx_heat_coil_szratio = ""
!x!end %>
!x! <% # Added for steam boiler variant. Behzad Rizi 2024-01-08 %>
!x!
!x!<% if (cool_coil_type == "DX-AIR")
!x! if (dx_comp_speed_num == 1)
!x!  iv_cool_coil_obj = "Coil:Cooling:DX:SingleSpeed"
!x! elsif (dx_comp_speed_num > 1)
!x!  iv_cool_coil_obj = "Coil:Cooling:DX:MultiSpeed"
!x! end
!x!  iv_cool_coil_nm = unitary_name + " Cooling Coil"
!x!elsif (cool_coil_type == "DX-WATER")
!x!  if (dx_comp_speed_num == 1)
!x!    iv_cool_coil_obj = "Coil:Cooling:WaterToAirHeatPump:EquationFit"
!x!  elsif (dx_comp_speed_num > 1)
!x!   iv_cool_coil_obj = "Coil:Cooling:WaterToAirHeatPump:VariableSpeedEquationFit"
!x!  end
!x!  iv_cool_coil_nm = unitary_name + " Cooling Coil"
!x!elsif (cool_coil_type == "WATER")
!x!  iv_cool_coil_obj = "Coil:Cooling:Water"
!x!  iv_cool_coil_nm = unitary_name + " Cooling Coil"
!x!elsif (cool_coil_type == "NONE")
!x!  iv_cool_coil_obj = ""
!x!  iv_cool_coil_nm = ""
!x!end %>
!x!
!x!<% if (doas && cool_coil_type.include?("DX"))
!x!  iv_use_doas_dx_cool = "Yes"
!x!else
!x!  iv_use_doas_dx_cool = "No"
!x!end %>
!x!
!x!<% if (aux_heat_coil_type == "COMBUSTION")
!x!  iv_sup_heat_coil_obj = "Coil:Heating:Fuel"
!x!  iv_sup_heat_coil_nm = unitary_name + " Aux Heating Coil"
!x!elsif (aux_heat_coil_type == "RESISTANCE")
!x!  iv_sup_heat_coil_obj = "Coil:Heating:Electric"
!x!  iv_sup_heat_coil_nm = unitary_name + " Aux Heating Coil"
!x!elsif (aux_heat_coil_type == "NONE")
!x!  iv_sup_heat_coil_obj = ""
!x!  iv_sup_heat_coil_nm = ""
!x!end %>
!x!
!x!<%# TRC - add option to set no load fraction of supply air flow rate for cPVVG system type
!x!    #0.67 is the EnergyPlus default for SupplyAirFlowRate method %>
!x!
!x!<% if (unitary_no_load_flow_method == "FractionOfAutosizedCoolingValue")
!x!  if (cool_flow_min_frac) 
!x!   iv_noload_frac_cool_supply = cool_flow_min_frac
!x!  else ("0.67") 
!x!   iv_noload_frac_cool_supply = 0.67
!x!  end
!x!else
!x!  iv_noload_frac_cool_supply = ""
!x!end %>
!x!
!x!<% if (heat_coil_type == "DX-AIR")
!x!  iv_max_supply_air_temp = ashp_supply_max_temp
!x!else
!x!  iv_max_supply_air_temp = sat_temp_max
!x!end %>
!x!
!x!<% if (aux_heat_coil_type == "NONE")
!x!  iv_max_oa_db_temp_supp = ""
!x!else
!x!  iv_max_oa_db_temp_supp = ashp_aux_heat_max_temp
!x!end %>
!x!
!x!<% if (cool_coil_type == "DX-AIR" and dx_comp_speed_num > 1)
!x!  iv_des_spec_ms_hp_obj = "UnitarySystemPerformance:Multispeed"
!x!  iv_des_spec_ms_hp_nm = unitary_name + " Multispeed Performance"
!x!else
!x!  iv_des_spec_ms_hp_obj = ""
!x!  iv_des_spec_ms_hp_nm = ""
!x!end %>

AirLoopHVAC:UnitarySystem,
  <%= unitary_name %> Unitary,     !- Name
  <%= control_type %>,     !- Control Type
  <%= control_zone_name %>,  !- Controlling Zone or Thermostat Location
  None,                    !- Dehumidification Control Type
  ,!<%= unitary_name %> Schedule,  !- Availability Schedule Name
  <%= unitary_name %> Unitary Inlet Node,  !- Air Inlet Node Name
  <%= unitary_name %> Unitary Outlet Node,  !- Air Outlet Node Name
  <%= iv_sup_fan_obj %>,               !- Supply Fan Object Type
  <%= unitary_name %> Supply Fan,  !- Supply Fan Name
  <%= iv_fan_placement %>,             !- Fan Placement
  <%= unitary_name %> Fan Mode Schedule,  !- Supply Air Fan Operating Mode Schedule Name
  <%= iv_heat_coil_obj %>,       !- Heating Coil Object Type
  <%= iv_heat_coil_nm %>,  !- Heating Coil Name
  <%= iv_dx_heat_coil_szratio %>,                        !- DX Heating Coil Sizing Ratio
  <%= iv_cool_coil_obj %>,                        !- Cooling Coil Object Type
  <%= iv_cool_coil_nm %>,                        !- Cooling Coil Name
  <%= iv_use_doas_dx_cool %>,                     !- Use DOAS DX Cooling Coil
  ,                        !- Minimum Supply Air Temperature {C}
  ,                        !- Latent Load Control
  <%= iv_sup_heat_coil_obj %>,       !- Supplemental Heating Coil Object Type
  <%= iv_sup_heat_coil_nm %>,  !- Supplemental Heating Coil Name
  SupplyAirFlowRate,       !- Cooling Supply Air Flow Rate Method
  <%= fan_flow %>,         !- Cooling Supply Air Flow Rate {m3/s}
  ,                        !- Cooling Supply Air Flow Rate Per Floor Area {m3/s-m2}
  ,                        !- Cooling Fraction of Autosized Cooling Supply Air Flow Rate
  ,                        !- Cooling Supply Air Flow Rate Per Unit of Capacity {m3/s-W}
  SupplyAirFlowRate,       !- Heating Supply Air Flow Rate Method
  <%= fan_flow %>,         !- Heating Supply Air Flow Rate {m3/s}
  ,                        !- Heating Supply Air Flow Rate Per Floor Area {m3/s-m2}
  ,                        !- Heating Fraction of Autosized Heating Supply Air Flow Rate
  ,                        !- Heating Supply Air Flow Rate Per Unit of Capacity {m3/s-W}
  <%= unitary_no_load_flow_method %>,       !- No Load Supply Air Flow Rate Method
  <%= fan_flow %>,         !- No Load Supply Air Flow Rate {m3/s}
  ,                        !- No Load Supply Air Flow Rate Per Floor Area {m3/s-m2}
  <%= iv_noload_frac_cool_supply %>,                        !- No Load Fraction of Autosized Cooling Supply Air Flow Rate
  ,                        !- No Load Fraction of Autosized Heating Supply Air Flow Rate
  ,                        !- No Load Supply Air Flow Rate Per Unit of Capacity During Cooling Operation {m3/s-W}
  ,                        !- No Load Supply Air Flow Rate Per Unit of Capacity During Heating Operation {m3/s-W}
  <%= iv_max_supply_air_temp %>,  !- Maximum Supply Air Temperature {C}
  <%= iv_max_oa_db_temp_supp %>,  !- Maximum Outdoor Dry-Bulb Temperature for Supplemental Heater Operation {C}
  ,                        !- Outdoor Dry-Bulb Temperature Sensor Node Name
  ,                        !- Maximum Cycling Rate {cycles/hr}
  ,                        !- Heat Pump Time Constant {s}
  ,                        !- Fraction of On-Cycle Power Use
  ,                        !- Heat Pump Fan Delay Time {s}
  ,                        !- Ancilliary On-Cycle Electric Power {W}
  ,                        !- Ancilliary Off-Cycle Electric Power {W}
  ,                        !- Design Heat Recovery Water Flow Rate {m3/s}
  ,                        !- Maximum Temperature for Heat Recovery {C}
  ,                        !- Heat Recovery Water Inlet Node Name
  ,                        !- Heat Recovery Water Outlet Node Name
  <%= iv_des_spec_ms_hp_obj %>,                        !- Design Specification Multispeed Heat Pump Object Type
  <%= iv_des_spec_ms_hp_nm %>;                        !- Design Specification Multispeed Heat Pump Object Name

!x!Schedule:Compact,
!x!  <%= unitary_name %> Schedule,  !- Name
!x!  Binary Control,          !- Schedule Type Limits Name
!x!  <%= op_sch %>;

!x!Schedule:Compact,
!x!  <%= unitary_name %> Fan Mode Schedule,  !- Name
!x!  Fan Mode Control,        !- Schedule Type Limits Name
!x!  <%= fan_mode_sch %>;

!x!<% if (fan_type == "ON-OFF") %>
!x!
!x! <% if (fan_config == "BLOW-THROUGH" or (cool_coil_type == "NONE" and heat_coil_type == "NONE"))
!x!  iv_air_inlet_node = unitary_name + " Unitary Inlet Node"
!x! elsif (heat_coil_type == "NONE")
!x!  iv_air_inlet_node = unitary_name + " Cooling Coil Outlet Node"
!x! else
!x!  iv_air_inlet_node = unitary_name + " Heating Coil Outlet Node"
!x! end %>
!x!
!x! <% if ((fan_config == "DRAW-THROUGH" and aux_heat_coil_type == "NONE") or
!x!  (cool_coil_type == "NONE" and heat_coil_type == "NONE" and aux_heat_coil_type == "NONE"))
!x!  iv_air_outlet_node = unitary_name + " Unitary Outlet Node"
!x! else
!x!  iv_air_outlet_node = unitary_name + " Supply Fan Outlet Node"
!x! end %>

 Fan:OnOff,
  <%= unitary_name %> Supply Fan,  !- Name
  <%= unitary_name %> Schedule,                        !- Availability Schedule Name
  <%= fan_eff %>,          !- Fan Efficiency
  <%= fan_rise %>,         !- Pressure Rise {Pa}
  <%= fan_flow %>,         !- Maximum Flow Rate {m^3/s}
  <%= fan_motor_eff %>,    !- Motor Efficiency
  <%= fan_motor_frac %>,   !- Motor In Airstream Fraction
  <%= iv_air_inlet_node %>,  !- Air Inlet Node Name
  <%= iv_air_outlet_node %>,  !- Air Outlet Node Name
  ,                        !- Fan Power Ratio Function of Speed Ratio Curve Name
  ,                        !- Fan Efficiency Ratio Function of Speed Ratio Curve Name
  <%= fan_subcat %>;       !- End-Use Subcategory

!x!<% elsif (fan_type == "SYSTEM-MODEL") %>
!x!
!x! <% if (fan_config == "BLOW-THROUGH" or (cool_coil_type == "NONE" and heat_coil_type == "NONE"))
!x!  iv_air_inlet_node = unitary_name + " Unitary Inlet Node"
!x! elsif (heat_coil_type == "NONE")
!x!  iv_air_inlet_node = unitary_name + " Cooling Coil Outlet Node"
!x! else
!x!  iv_air_inlet_node = unitary_name + " Heating Coil Outlet Node"
!x! end %>
!x!
!x! <% if ((fan_config == "DRAW-THROUGH" and aux_heat_coil_type == "NONE") or
!x!  (cool_coil_type == "NONE" and heat_coil_type == "NONE" and aux_heat_coil_type == "NONE"))
!x!  iv_air_outlet_node = unitary_name + " Unitary Outlet Node"
!x! else
!x!  iv_air_outlet_node = unitary_name + " Supply Fan Outlet Node"
!x! end %>
!x!
!x! <% if fan_speed == "VARIABLE"
!x!  iv_speed_control = "Continuous"
!x! else
!x!  iv_speed_control = "Discrete"
!x! end %>
!x!
!x! <% if fan_speed == "VARIABLE"
!x!  iv_elec_pwr_func_flow_curve_nm = unitary_name + " Supply Fan Curve"
!x! else
!x!  iv_elec_pwr_func_flow_curve_nm = ""
!x! end %>
!x!
!x! <% if fan_speed == "CONSTANT"
!x!  iv_num_speeds = 1
!x!  iv_spd1_flow_frac = 1
!x!  iv_spd1_pwr_frac = constant_fan_speed_power_frac
!x!  iv_spd2_flow_frac = ""
!x!  iv_spd2_pwr_frac = ""
!x!  iv_spd3_flow_frac = ""
!x!  iv_spd3_pwr_frac = ""
!x!
!x! elsif fan_speed == "DUAL"
!x!  iv_num_speeds = 2
!x!  iv_spd1_flow_frac = fan_low_speed_flow_frac
!x!  iv_spd1_pwr_frac = fan_low_speed_power_frac
!x!  iv_spd2_flow_frac = 1
!x!  iv_spd2_pwr_frac = 1
!x!  iv_spd3_flow_frac = ""
!x!  iv_spd3_pwr_frac = ""
!x!
!x! elsif fan_speed == "THREE-SPEED"
!x!  iv_num_speeds = 3
!x!  iv_spd1_flow_frac = fan_speed_1_flow_frac
!x!  iv_spd1_pwr_frac = fan_speed_1_power_frac
!x!  iv_spd2_flow_frac = fan_speed_2_flow_frac
!x!  iv_spd2_pwr_frac = fan_speed_2_power_frac
!x!  iv_spd3_flow_frac = fan_speed_3_flow_frac
!x!  iv_spd3_pwr_frac = fan_speed_3_power_frac
!x!
!x! elsif fan_speed == "VARIABLE"
!x!  iv_num_speeds = ""
!x!  iv_spd1_flow_frac = ""
!x!  iv_spd1_pwr_frac = ""
!x!  iv_spd2_flow_frac = ""
!x!  iv_spd2_pwr_frac = ""
!x!  iv_spd3_flow_frac = ""
!x!  iv_spd3_pwr_frac = ""
!x! end %>

 Fan:SystemModel,
  <%= unitary_name %> Supply Fan,    !- Name
  <%= unitary_name %> Schedule,       !- Availability Schedule Name
  <%= iv_air_inlet_node %>,  !- Air Inlet Node Name
  <%= iv_air_outlet_node %>,  !- Air Outlet Node Name
  <%= fan_flow %>,                !- Design Maximum Air Flow Rate
  <%= iv_speed_control %>,                !- Speed Control Method
  <%= fan_flow_min_frac %>,                       !- Electric Power Minimum Flow Rate Fraction
  <%= fan_rise %>,                   !- Design Pressure Rise
  <%= fan_motor_eff %>,                   !- Motor Efficiency
  <%= fan_motor_frac %>,                       !- Motor In Air Stream Fraction
  Autosize,                !- Design Electric Power Consumption
  <%= fan_sizing_method %>,  !- Design Power Sizing Method
  <%= fan_power_per_flow %>,                        !- Electric Power Per Unit Flow Rate
  <%= fan_power_per_flow_pressure %>,                        !- Electric Power Per Unit Flow Rate Per Unit Pressure
  <%= fan_eff %>,                 !- Fan Total Efficiency
  <%= iv_elec_pwr_func_flow_curve_nm %>,                        !- Electric Power Function of Flow Fraction Curve Name
  <%= fan_rise %>,                   !- Night Ventilation Mode Pressure Rise
  ,                        !- Night Ventilation Mode Flow Fraction
  ,                        !- Motor Loss Zone Name
  ,                        !- Motor Loss Radiative Fraction
  <%= fan_subcat %>,                 !- End-Use Subcategory
  <%= iv_num_speeds %>,                       !- Number of Speeds
  <%= iv_spd1_flow_frac %>,                    !- Speed Flow Fraction
  <%= iv_spd1_pwr_frac %>,                     !- Electric Power Fraction
  <%= iv_spd2_flow_frac %>,                       !- Speed Flow Fraction
  <%= iv_spd2_pwr_frac %>,                     !- Electric Power Fraction
  <%= iv_spd3_flow_frac %>,                           !- Speed Flow Fraction  
  <%= iv_spd3_pwr_frac %>;                       !- Electric Power Fraction

!x! <% if fan_speed == "VARIABLE" %>

!x! <%
!x! # TRC: Added if/else conditional statement for fan curve performance for SWHC018
!x! # TRC: Fan curve values sourced from ANSI/ASHRAE/IES Standard 90.1-2016 Performance Rating Method Reference Manual
!x! %>
!x!  <% if fan_curve == "MZVAV-FC" # TRC: Fan Type - Multi zone VAV with forward curve fans riding the curve %>
  Curve:Quartic,
  <%= unitary_name %> Supply Fan Curve,                      !- Name
  0.1224 ,                       !- Coefficient1 Constant
  0.612 ,                         !- Coefficient2 x
  0.5983 ,                      !- Coefficient3 x**2
  -0.3334 ,                       !- Coefficient4 x**3
  0.0 ,                                !- Coefficient5 x**4
  0.0 ,                                !- Minimum Value of x
  1.0 ,                                !- Maximum Value of x
  0.3 ,                                !- Minimum Curve Output
  1.0 ,                                !- Maximum Curve Output
  Dimensionless ,                      !- Input Unit Type for X
  Dimensionless ;                      !- Output Unit Type

!x!  <% elsif fan_curve == "MZVAV-VSD" # TRC: Fan Type - Multi zone VAV with VSD and fixed SP setpoint %> 
  Curve:Quartic,
  <%= unitary_name %> Supply Fan Curve,                      !- Name
  0.0013 ,                       !- Coefficient1 Constant
  0.1470 ,                         !- Coefficient2 x
  0.9506 ,                      !- Coefficient3 x**2
  -0.0998 ,                       !- Coefficient4 x**3
  0.0 ,                                !- Coefficient5 x**4
  0.0 ,                                !- Minimum Value of x
  1.0 ,                                !- Maximum Value of x
  0.2 ,                                !- Minimum Curve Output
  1.0 ,                                !- Maximum Curve Output
  Dimensionless ,                      !- Input Unit Type for X
  Dimensionless ;                      !- Output Unit Type

!x!  <% elsif fan_curve == "T24" %>
  Curve:Quartic,
  <%= unitary_name %> Supply Fan Curve,                      !- Name
  0.0407598940 ,                       !- Coefficient1 Constant
  0.08804497 ,                         !- Coefficient2 x
   -0.072926120 ,                      !- Coefficient3 x**2
  0.9437398230 ,                       !- Coefficient4 x**3
  0.0 ,                                !- Coefficient5 x**4
  0.0 ,                                !- Minimum Value of x
  1.0 ,                                !- Maximum Value of x
  0.0 ,                                !- Minimum Curve Output
  1.0 ,                                !- Maximum Curve Output
  Dimensionless,                      !- Input Unit Type for X
  Dimensionless;                      !- Output Unit Type
!x!  <% end %>
!x! <% end %>

!x!<% elsif (fan_type == "VARIABLE") %>
!x!
!x!<% if (fan_config == "BLOW-THROUGH" or (cool_coil_type == "NONE" and heat_coil_type == "NONE"))
!x!  iv_air_inlet_node_nm = unitary_name + " Unitary Inlet Node"
!x!elsif (heat_coil_type == "NONE")
!x!  iv_air_inlet_node_nm = unitary_name + " Cooling Coil Outlet Node"
!x!else
!x!  iv_air_inlet_node_nm = unitary_name + " Heating Coil Outlet Node"
!x!end %>
!x!
!x!<% if ((fan_config == "DRAW-THROUGH" and aux_heat_coil_type == "NONE") or
!x!  (cool_coil_type == "NONE" and heat_coil_type == "NONE" and aux_heat_coil_type == "NONE"))
!x!  iv_air_outlet_node_nm = unitary_name + " Unitary Outlet Node"
!x!else
!x!  iv_air_outlet_node_nm = unitary_name + " Supply Fan Outlet Node"
!x!end %>

Fan:VariableVolume,
  <%= unitary_name %> Supply Fan,  !- Name
  <%= unitary_name %> Schedule,                        !- Availability Schedule Name
  <%= fan_eff %>,          !- Fan Efficiency
  <%= fan_rise %>,         !- Pressure Rise {Pa}
  <%= fan_flow %>,         !- Maximum Flow Rate {m^3/s}
  <%= fan_flow_min_method %>,                !- Fan Power Minimum Flow Rate Input Method
  <%= fan_flow_min_frac %>,  !- Fan Power Minimum Flow Fraction {}
  <%= fan_flow_min %>,                        !- Fan Power Minimum Flow Rate {m3/s}
  <%= fan_motor_eff %>,    !- Motor Efficiency
  <%= fan_motor_frac %>,   !- Motor In Airstream Fraction
  0.0408,                  !- Fan Power Coefficient 1
  0.088,                   !- Fan Power Coefficient 2
  -0.0729,                  !- Fan Power Coefficient 3
  0.9437,                 !- Fan Power Coefficient 4
  0.0,                     !- Fan Power Coefficient 5
  <%= iv_air_inlet_node_nm %>,  !- Air Inlet Node Name
  <%= iv_air_outlet_node_nm %>,  !- Air Outlet Node Name
  <%= fan_subcat %>;       !- End-Use Subcategory
!x!<% end %>

!x!<% if (fan_config == "DRAW-THROUGH")
!x!  iv_air_inlet_node_nm = unitary_name + " Unitary Inlet Node"
!x!else
!x!  iv_air_inlet_node_nm = unitary_name + " Supply Fan Outlet Node"
!x!end %>
!x!
!x!<% if (fan_config == "BLOW-THROUGH" and heat_coil_type == "NONE" and aux_heat_coil_type == "NONE")
!x!  iv_air_outlet_node_nm = unitary_name + " Unitary Outlet Node"
!x!else
!x!  iv_air_outlet_node_nm = unitary_name + " Cooling Coil Outlet Node"
!x!end %>
!x!
!x!<% if (cool_coil_type == "DX-AIR")
!x!  iv_cond_type = "AirCooled"
!x!  iv_evap_cond_effec = ""
!x!  iv_evap_cond_airflow_rt = ""
!x!elsif (cool_coil_type == "DX-EVAP")
!x!  iv_cond_type = "EvaporativelyCooled"
!x!  iv_evap_cond_effec = cool_coil_evap_eff
!x!  iv_evap_cond_airflow_rt = "Autosize"
!x!end %>
!x!
!x!<% if (cool_coil_type == "DX-AIR" and dx_comp_speed_num == 1) %>
!x!
!x! <% if (fan_config == "DRAW-THROUGH")
!x!  iv_air_inlet_node_nm = unitary_name + " Unitary Inlet Node"
!x! else
!x!  iv_air_inlet_node_nm = unitary_name + " Supply Fan Outlet Node"
!x! end %>
!x!
!x! <% if (fan_config == "BLOW-THROUGH" and heat_coil_type == "NONE" and aux_heat_coil_type == "NONE")
!x!  iv_air_outlet_node_nm = unitary_name + " Unitary Outlet Node"
!x! else
!x!  iv_air_outlet_node_nm = unitary_name + " Cooling Coil Outlet Node"
!x! end %>
!x!
!x! <% if (cool_coil_type == "DX-AIR")
!x!  iv_cond_type = "AirCooled"
!x!  iv_evap_cond_effec = ""
!x!  iv_evap_cond_airflow_rt = ""
!x! elsif (cool_coil_type == "DX-EVAP")
!x!  iv_cond_type = "EvaporativelyCooled"
!x!  iv_evap_cond_effec = cool_coil_evap_eff
!x!  iv_evap_cond_airflow_rt = "Autosize"
!x! end %>

 Coil:Cooling:DX:SingleSpeed,
  <%= unitary_name %> Cooling Coil,  !- Name
  ,                        !- Availability Schedule Name
  <%= cool_coil_cap %>,    !- Gross Rated Total Cooling Capacity {W}
  Autosize,                !- Gross Rated Sensible Heat Ratio
  <%= cool_coil_cop_1 %>,  !- Gross Rated Cooling COP
  <%= fan_flow %>,         !- Rated Air Flow Rate {m^3/s}
  ,                        !- 2017 Rated Evaporator Fan Power Per Volume Flow Rate {W/(m^3/s)}
  ,                        !- 2023 Rated Evaporator Fan Power Per Volume Flow Rate {W/(m^3/s)}
  <%= iv_air_inlet_node_nm %>,  !- Air Inlet Node Name
  <%= iv_air_outlet_node_nm %>,  !- Air Outlet Node Name
  <%= unitary_name %> Cool-Cap-fT,  !- Total Cooling Capacity Function of Temperature Curve Name
  <%= unitary_name %> Cool-Cap-fFF,  !- Total Cooling Capacity Function of Flow Fraction Curve Name
  <%= unitary_name %> Cool-EIR-fT,  !- Energy Input Ratio Function of Temperature Curve Name
  <%= unitary_name %> Cool-EIR-fFF,  !- Energy Input Ratio Function of Flow Fraction Curve Name
  <%= unitary_name %> Cool-PLF-fPLR,  !- Part Load Fraction Correlation Curve Name
  -25.0,                   !- Minimum Outdoor Dry-Bulb Temperature for Compressor Operation (C)
  1000,                    !- Nominal Time for Condensate Removal to Begin {s}
  1.5,                     !- Ratio of Initial Moisture Evaporation Rate and Steady State Latent Capacity
  3,                       !- Maximum Cycling Rate {cycles/hr}
  45,                      !- Latent Capacity Time Constant {s}
  ,                        !- Condenser Air Inlet Node Name
  <%= iv_cond_type %>,     !- Condenser Type
  <%= iv_evap_cond_effec %>,  !- Evaporative Condenser Effectiveness
  <%= iv_evap_cond_airflow_rt %>,                !- Evaporative Condenser Air Flow Rate {m^3/s}
  ,                        !- Evaporative Condenser Pump Rated Power Consumption {W}
  <%= dx_crankcase_cap %>,  !- Crankcase Heater Capacity {W}
  <%= dx_crankcase_max_temp %>,  !- Maximum Outdoor Dry-Bulb Temperature for Crankcase Heater Operation {C}
  ,                        !- Supply Water Storage Tank Name
  <%= clear_water_storage_tank %>;  !- Condensate Collection Water Storage Tank Name

!x! <% if (dx_type == "TERMINAL") %>
! Performance curves for DX Cooling Coil taken from NREL document http://www.nrel.gov/docs/fy13osti/57617.pdf model FRA103BT1 from Frigidaire.

 Curve:Biquadratic,
  <%= unitary_name %> Cool-Cap-fT,  !- Name
  0.8477,             !- Coefficient1 Constant
  0.007225,             !- Coefficient2 x
  0.0008902,             !- Coefficient3 x**2
  0.002077,            !- Coefficient4 y
  -0.00009272,             !- Coefficient5 y**2
  -0.0004184,            !- Coefficient6 x*y
  12.77778,                !- Minimum Value of x
  23.88889,                !- Maximum Value of x
  18.0,                    !- Minimum Value of y
  46.11111;                !- Maximum Value of y

 Curve:Biquadratic,
  <%= unitary_name %> Cool-EIR-fT,  !- Name
  0.5111,             !- Coefficient1 Constant
  0.01505,             !- Coefficient2 x
  -0.0004509,            !- Coefficient3 x**2
  0.007401,             !- Coefficient4 y
  0.0003901,             !- Coefficient5 y**2
  -0.0005426,            !- Coefficient6 x*y
  12.77778,                !- Minimum Value of x
  23.88889,                !- Maximum Value of x
  18.0,                    !- Minimum Value of y
  46.11111;                !- Maximum Value of y

 Curve:Quadratic,
  <%= unitary_name %> Cool-Cap-fFF,  !- Name
  0.7957,                     !- Coefficient1 Constant
  0.2053,                     !- Coefficient2 x
  0.999,                     !- Coefficient3 x**2
  0.5,                     !- Minimum Value of x
  1.5;                     !- Maximum Value of x

 Curve:Quadratic,
  <%= unitary_name %> Cool-EIR-fFF,  !- Name
  1.092,                  !- Coefficient1 Constant
  -0.8983,                 !- Coefficient2 x
  0.952,                  !- Coefficient3 x**2
  0.5,                     !- Minimum Value of x
  1.5;                     !- Maximum Value of x

 Curve:Quadratic,
  <%= unitary_name %> Cool-PLF-fPLR,  !- Name
  0.85,                    !- Coefficient1 Constant
  0.15,                    !- Coefficient2 x
  0.0,                     !- Coefficient3 x**2
  0.0,                     !- Minimum Value of x
  1.0;                     !- Maximum Value of x
!x! <% elsif (dx_type == "PNNL") %>
! Following performance curves taken from single-speed DX system in PNNL model 90.1-2004 (Retail Strip Mall,Small Office )

 Curve:Biquadratic,
  <%= unitary_name %> Cool-Cap-fT,  !- Name
  0.766956,0.0107756,-4.14703e-05,0.00134961,-0.000261144,0.000457488,   !- Coefficients (list)
  12.77778,                !- Minimum Value of x
  23.88889,                !- Maximum Value of x
  21.11111,                !- Minimum Value of y
  46.11111;                !- Maximum Value of y

 Curve:Biquadratic,
  <%= unitary_name %> Cool-EIR-fT,  !- Name
  0.297145,0.0430933,-0.000748766,0.00597727,0.000482112,-0.000956448,   !- Coefficients (List)
  12.77778,                !- Minimum Value of x
  23.88889,                !- Maximum Value of x
  21.11111,                !- Minimum Value of y
  46.11111;                !- Maximum Value of y

 Curve:Quadratic,
  <%= unitary_name %> Cool-PLF-fPLR,  !- Name
  0.85,0.15,0,     !- Coefficients (List)
  0,                       !- Minimum Value of x
  1;                       !- Maximum Value of x

 Curve:Quadratic,
  <%= unitary_name %> Cool-Cap-fFF,  !- Name
  0.8,0.2,0.0,   !- Coefficients (List)
  0.5,                                      !- Minimum Value of x
  1.5,                                      !- Maximum Value of x
  0,                                      !- Minimum Value of y
  2;                                      !- Maximum Value of y

 Curve:Quadratic,
  <%= unitary_name %> Cool-EIR-fFF,  !- Name
  1.156,-0.1816,0.0256,   !- Coefficients (List)
  0.5,                     !- Minimum Value of x
  1.5;                     !- Maximum Value of x
!x! <% elsif (dx_type == "DOE") %>
! Following performance curves taken from single-speed DX system in DOE model 90.1-2004 (Retail Supermarket Office PSZ)

 Curve:Biquadratic,
  <%= unitary_name %> Cool-Cap-fT,  !- Name
  0.9712123,-0.015275502,0.0014434524,-0.00039321,-0.0000068364,-0.0002905956,   !- Coefficients (list)
  -100,                !- Minimum Value of x
  100,                !- Maximum Value of x
  -100,                !- Minimum Value of y
  100;                !- Maximum Value of y

 Curve:Biquadratic,
  <%= unitary_name %> Cool-EIR-fT,  !- Name
  0.28687133,0.023902164,-0.000810648,0.013458546,0.0003389364,-0.0004870044,   !- Coefficients (List)
  -100,                !- Minimum Value of x
  100,                !- Maximum Value of x
  -100,                !- Minimum Value of y
  100;                !- Maximum Value of y

 Curve:Quadratic,
  <%= unitary_name %> Cool-PLF-fPLR,  !- Name
  0.90949556,0.09864773,-0.00819488,     !- Coefficients (List)
  0,                       !- Minimum Value of x
  1,                       !- Maximum Value of x
  0.7,                     !- Minimum Curve Output
  1;                       !- Maximum Curve Output

 Curve:Cubic,
  <%= unitary_name %> Cool-Cap-fFF,  !- Name
  1,0,0,0,   !- Coefficients (List)
  -100,                                      !- Minimum Value of x
  100;                                      !- Maximum Value of x

 Curve:Cubic,
  <%= unitary_name %> Cool-EIR-fFF,  !- Name
  1,0,0,0,   !- Coefficients (List)
  -100,                                      !- Minimum Value of x
  100;                                      !- Maximum Value of x

!x! <% else %>
! Following performance curves taken from single-speed DX system in BeOpt

 Curve:Biquadratic,
  <%= unitary_name %> Cool-Cap-fT,  !- Name
  1.5509020010000003,-0.0750500892,0.00309713544,0.00240111,-0.000050544,-0.00042728148,   !- Coefficients (list)
  13.88,         !- Minimum Value of x
  23.88,         !- Maximum Value of x
  18.33,         !- Minimum Value of y
  51.66;         !- Maximum Value of y

 Curve:Biquadratic,
  <%= unitary_name %> Cool-EIR-fT,  !- Name
  -0.3042829970000005,0.1180477062,-0.00342466704,-0.0062619138,0.00069542712,-0.00046997496,   !- Coefficients (List)
  13.88,         !- Minimum Value of x
  23.88,         !- Maximum Value of x
  18.33,         !- Minimum Value of y
  51.66;         !- Maximum Value of y

 Curve:Quadratic,
  <%= unitary_name %> Cool-PLF-fPLR,  !- Name
  <%= 1 - cool_coil_cd %>,<%= cool_coil_cd %>,0,     !- Coefficients (List)
  0,                           !- Minimum Value of x
  1,                           !- Maximum Value of x
  0.7,                         !- Minimum Value of y
  1;                           !- Maximum Value of y

 Curve:Quadratic,
  <%= unitary_name %> Cool-Cap-fFF,  !- Name
  0.718605468,0.410099989,-0.128705457,   !- Coefficients (List)
  0,                                      !- Minimum Value of x
  2,                                      !- Maximum Value of x
  0,                                      !- Minimum Value of y
  2;                                      !- Maximum Value of y

 Curve:Quadratic,
  <%= unitary_name %> Cool-EIR-fFF,  !- Name
  1.32299905,-0.477711207,0.154712157,   !- Coefficients (List)
  0,                                     !- Minimum Value of x
  2,                                     !- Maximum Value of x
  0,                                     !- Minimum Value of y
  2;                                     !- Maximum Value of y
!x! <% end # if (dx_type == "TERMINAL") %>


!x!<% elsif (cool_coil_type == "DX-AIR" and dx_comp_speed_num > 1) %>
!x!
!x!<% if (fan_config == "DRAW-THROUGH")
!x!  iv_air_inlet_node_nm = unitary_name + " Unitary Inlet Node"
!x!else
!x!  iv_air_inlet_node_nm = unitary_name + " Supply Fan Outlet Node"
!x!end %>
!x!
!x!<% if (fan_config == "BLOW-THROUGH" and heat_coil_type == "NONE" and aux_heat_coil_type == "NONE")
!x!  iv_air_outlet_node_nm = unitary_name + " Unitary Outlet Node"
!x!else
!x!  iv_air_outlet_node_nm = unitary_name + " Cooling Coil Outlet Node"
!x!end %>
!x!
!x!<% if (cool_coil_type == "DX-AIR")
!x!  iv_cond_type = "AirCooled"
!x!elsif (cool_coil_type == "DX-EVAP")
!x!  iv_cond_type = "EvaporativelyCooled"
!x!end %>
!x!
!x!<% if (cool_coil_type == "DX-AIR")
!x!  iv_spd1_evap_cond_eff = ""
!x!  iv_spd1_evap_cond_airflow_rate = ""
!x!elsif (cool_coil_type == "DX-EVAP")
!x!  iv_spd1_evap_cond_eff = cool_coil_evap_eff
!x!  iv_spd1_evap_cond_airflow_rate = "Autosize"
!x!end %>
!x!
!x!<% if (dx_comp_speed_num == 2)
!x!  iv_spd2_cool_cap = cool_coil_cap
!x!else
!x!  iv_spd2_cool_cap = "Autosize"
!x!end %>
!x!
!x!<% if (cool_coil_type == "DX-AIR")
!x!  iv_spd2_evap_cond_eff = ""
!x!  iv_spd2_evap_cond_airflow_rate = ""
!x!elsif (cool_coil_type == "DX-EVAP")
!x!  iv_spd2_evap_cond_eff = cool_coil_evap_eff
!x!  iv_spd2_evap_cond_airflow_rate = "Autosize"
!x!end %>
!x!
!x!<% if (dx_comp_speed_num < 3)
!x!  iv_spd3_tot_cool_cap = ""
!x!  iv_spd3_gross_shr = ""
!x!  iv_spd3_cop = ""
!x!  iv_spd3_rated_airflow_rate = ""
!x!  iv_spd3_cool_cap_vs_temp_curve_nm = ""
!x!  iv_spd3_cool_cap_vs_flow_curve_nm = ""
!x!  iv_spd3_eir_vs_temp_curve_nm = ""
!x!  iv_spd3_eir_vs_flow_curve_nm = ""
!x!  iv_spd3_plf_curve_nm = ""
!x!  iv_spd3_time_cond_removal_begin = ""
!x!  iv_spd3_ratio_evap_rate = ""
!x!  iv_spd3_max_cyc_rate = ""
!x!  iv_spd3_latent_cap_time_const = ""
!x!  iv_spd3_waste_heat_frac_of_pwr = ""
!x!  iv_spd3_waste_heat_vs_temp_curve_nm = ""
!x!  iv_spd3_evap_cond_eff = ""
!x!  iv_spd3_evap_cond_airflow_rate = ""
!x!else
!x!  iv_spd3_tot_cool_cap = "Autosize"
!x!  iv_spd3_gross_shr = "Autosize"
!x!  iv_spd3_cop = cool_coil_cop_3
!x!  iv_spd3_rated_airflow_rate = "Autosize"
!x!  iv_spd3_cool_cap_vs_temp_curve_nm = unitary_name + " Cool-Cap-fT3"
!x!  iv_spd3_cool_cap_vs_flow_curve_nm = unitary_name + " Cool-Cap-fFF3"
!x!  iv_spd3_eir_vs_temp_curve_nm = unitary_name + " Cool-EIR-fT3"
!x!  iv_spd3_eir_vs_flow_curve_nm = unitary_name + " Cool-EIR-fFF3"
!x!  iv_spd3_plf_curve_nm = unitary_name + " Cool-PLF-fPLR3"
!x!  iv_spd3_time_cond_removal_begin = 1000
!x!  iv_spd3_ratio_evap_rate = 1.5
!x!  iv_spd3_max_cyc_rate = 3
!x!  iv_spd3_latent_cap_time_const = 45
!x!  iv_spd3_waste_heat_frac_of_pwr = 0.2
!x!  iv_spd3_waste_heat_vs_temp_curve_nm = unitary_name + " Cool-Waste"
!x! if (cool_coil_type == "DX-AIR")
!x!  iv_spd3_evap_cond_eff = ""
!x!  iv_spd3_evap_cond_airflow_rate = ""
!x! elsif (cool_coil_type == "DX-EVAP")
!x!  iv_spd3_evap_cond_eff = cool_coil_evap_eff
!x!  iv_spd3_evap_cond_airflow_rate = "Autosize"
!x! end %>
!x!
!x! <% if (dx_comp_speed_num < 4)
!x!  iv_spd4_tot_cool_cap = ""
!x!  iv_spd4_gross_shr = ""
!x!  iv_spd4_cop = ""
!x!  iv_spd4_rated_airflow_rt = ""
!x!  iv_spd4_cool_cap_vs_temp_curve_nm = ""
!x!  iv_spd4_cool_cap_vs_flow_cirve_nm = ""
!x!  iv_spd4_eir_vs_temp_curve_nm = ""
!x!  iv_spd4_eir_vs_flow_curve_nm = ""
!x!  iv_spd4_plf_curve_nm = ""
!x!  iv_spd4_nom_time_cond_removal = ""
!x!  iv_spd4_ratio_moisture_evap_rate = ""
!x!  iv_spd4_max_cycling_rate = ""
!x!  iv_spd4_latent_cap_time_const = ""
!x!  iv_spd4_waste_heat_frac_power = ""
!x!  iv_spd4_waste_heat_vs_temp_curve_nm = ""
!x!  iv_spd4_evap_cond_eff = ""
!x!  iv_spd4_evap_cond_af_rate = ""
!x! else
!x!  iv_spd4_tot_cool_cap = cool_coil_cap
!x!  iv_spd4_gross_shr = "Autosize"
!x!  iv_spd4_cop = cool_coil_cop_4
!x!  iv_spd4_rated_airflow_rt = "Autosize"
!x!  iv_spd4_cool_cap_vs_temp_curve_nm = unitary_name + " Cool-Cap-fT4"
!x!  iv_spd4_cool_cap_vs_flow_cirve_nm = unitary_name + " Cool-Cap-fFF4"
!x!  iv_spd4_eir_vs_temp_curve_nm = unitary_name + " Cool-EIR-fT4"
!x!  iv_spd4_eir_vs_flow_curve_nm = unitary_name + " Cool-EIR-fFF4"
!x!  iv_spd4_plf_curve_nm = unitary_name + " Cool-PLF-fPLR4"
!x!  iv_spd4_nom_time_cond_removal = 1000
!x!  iv_spd4_ratio_moisture_evap_rate = 1.5
!x!  iv_spd4_max_cycling_rate = 3
!x!  iv_spd4_latent_cap_time_const = 45
!x!  iv_spd4_waste_heat_frac_power = 0.2
!x!  iv_spd4_waste_heat_vs_temp_curve_nm = unitary_name + " Cool-Waste"
!x!  if (cool_coil_type == "DX-AIR")
!x!   iv_spd4_evap_cond_eff = ""
!x!   iv_spd4_evap_cond_af_rate = ""
!x!  elsif (cool_coil_type == "DX-EVAP")
!x!   iv_spd4_evap_cond_eff = cool_coil_evap_eff
!x!   iv_spd4_evap_cond_af_rate = "Autosize"
!x!  end
!x! end
!x!end %>


Coil:Cooling:DX:MultiSpeed,
  <%= unitary_name %> Cooling Coil,  !- Name
  ,                        !- Availability Schedule Name
  <%= iv_air_inlet_node_nm %>,  !- Air Inlet Node Name
  <%= iv_air_outlet_node_nm %>,  !- Air Outlet Node Name
  ,                        !- Condenser Air Inlet Node Name
  <%= iv_cond_type %>,               !- Condenser Type
  -25.0,                   !- Minimum Outdoor Dry-Bulb Temperature for Compressor Operation (C)
  ,                        !- Supply Water Storage Tank Name
  <%= clear_water_storage_tank %>,  !- Condensate Collection Water Storage Tank Name
  No,                      !- Apply Part Load Fraction to Speeds Greater than 1
  No,                      !- Apply Latent Degradation to Speeds Greater than 1
  <%= dx_crankcase_cap %>,  !- Crankcase Heater Capacity {W}
  <%= dx_crankcase_max_temp %>,  !- Maximum Outdoor Dry-Bulb Temperature for Crankcase Heater Operation {C}
  ,                        !- Basin Heater Capacity
  ,                        !- Basin Heater Setpoint Temperature
  ,                        !- Basin Heater Operating Schedule Name
  Electricity,             !- Fuel Type
  <%= dx_comp_speed_num %>,  !- Number of Speeds
  Autosize,    !- Speed 1 Gross Rated Total Cooling Capacity {W}
  Autosize,                !- Speed 1 Gross Rated Sensible Heat Ratio
  <%= cool_coil_cop_1 %>,  !- Speed 1 Gross Rated Cooling COP
  <%= fan_flow %>,         !- Speed 1 Rated Air Flow Rate {m^3/s}
  ,                        !- 2017 Speed 1 Rated Evaporator Fan Power Per Volume Flow Rate {W/(m^3/s)}
  ,                        !- 2023 Speed 1 Rated Evaporator Fan Power Per Volume Flow Rate {W/(m^3/s)}
  <%= unitary_name %> Cool-Cap-fT1,  !- Speed 1 Total Cooling Capacity Function of Temperature Curve Name
  <%= unitary_name %> Cool-Cap-fFF1,  !- Speed 1 Total Cooling Capacity Function of Flow Fraction Curve Name
  <%= unitary_name %> Cool-EIR-fT1,  !- Speed 1 Energy Input Ratio Function of Temperature Curve Name
  <%= unitary_name %> Cool-EIR-fFF1,  !- Speed 1 Energy Input Ratio Function of Flow Fraction Curve Name
  <%= unitary_name %> Cool-PLF-fPLR1,  !- Speed 1 Part Load Fraction Correlation Curve Name
  1000,                    !- Speed 1 Nominal Time for Condensate Removal to Begin {s}
  1.5,                     !- Speed 1 Ratio of Initial Moisture Evaporation Rate and Steady State Latent Capacity
  3,                       !- Speed 1 Maximum Cycling Rate {cycles/hr}
  45,                      !- Speed 1 Latent Capacity Time Constant {s}
  0.2,                     !- Speed 1 Rated Waste Heat Fraction of Power Input
  <%= unitary_name %> Cool-Waste,  !- Speed 1 Waste Heat Function of Temperature Curve Name
  <%= iv_spd1_evap_cond_eff %>,                        !- Speed 1 Evaporative Condenser Effectiveness
  <%= iv_spd1_evap_cond_airflow_rate %>,                        !- Speed 1 Evaporative Condenser Air Flow Rate {m^3/s}
  ,                        !- Speed 1 Rated Evaporative Condenser Pump Power Consumption {W}
  <%= iv_spd2_cool_cap %>,                !- Speed 2 Gross Rated Total Cooling Capacity {W}
  Autosize,                !- Speed 2 Gross Rated Sensible Heat Ratio
  <%= cool_coil_cop_2 %>,  !- Speed 2 Gross Rated Cooling COP
  Autosize,                !- Speed 2 Rated Air Flow Rate {m^3/s}
  ,                        !- 2017 Speed 2 Rated Evaporator Fan Power Per Volume Flow Rate {W/(m^3/s)}
  ,                        !- 2023 Speed 2 Rated Evaporator Fan Power Per Volume Flow Rate {W/(m^3/s)}
  <%= unitary_name %> Cool-Cap-fT2,  !- Speed 2 Total Cooling Capacity Function of Temperature Curve Name
  <%= unitary_name %> Cool-Cap-fFF2,  !- Speed 2 Total Cooling Capacity Function of Flow Fraction Curve Name
  <%= unitary_name %> Cool-EIR-fT2,  !- Speed 2 Energy Input Ratio Function of Temperature Curve Name
  <%= unitary_name %> Cool-EIR-fFF2,  !- Speed 2 Energy Input Ratio Function of Flow Fraction Curve Name
  <%= unitary_name %> Cool-PLF-fPLR2,  !- Speed 2 Part Load Fraction Correlation Curve Name
  1000,                    !- Speed 2 Nominal Time for Condensate Removal to Begin {s}
  1.5,                     !- Speed 2 Ratio of Initial Moisture Evaporation Rate and steady state Latent Capacity
  3,                       !- Speed 2 Maximum Cycling Rate {cycles/hr}
  45,                      !- Speed 2 Latent Capacity Time Constant {s}
  0.2,                     !- Speed 2 Rated Waste Heat Fraction of Power Input
  <%= unitary_name %> Cool-Waste,  !- Speed 2 Waste Heat Function of Temperature Curve Name
  <%= iv_spd2_evap_cond_eff %>,  !- Speed 2 Evaporative Condenser Effectiveness
  <%= iv_spd2_evap_cond_airflow_rate %>,                !- Speed 2 Evaporative Condenser Air Flow Rate {m^3/s}
  ,                        !- Speed 2 Rated Evaporative Condenser Pump Power Consumption {W}
  <%= iv_spd3_tot_cool_cap %>,    !- Speed 3 Gross Rated Total Cooling Capacity {W}
  <%= iv_spd3_gross_shr %>,                !- Speed 3 Gross Rated Sensible Heat Ratio
  <%= iv_spd3_cop %>,  !- Speed 3 Gross Rated Cooling COP
  <%= iv_spd3_rated_airflow_rate %>,                !- Speed 3 Rated Air Flow Rate {m^3/s}
  ,                        !- 2017 Speed 3 Rated Evaporator Fan Power Per Volume Flow Rate {W/(m^3/s)}
  ,                        !- 2023 Speed 3 Rated Evaporator Fan Power Per Volume Flow Rate {W/(m^3/s)}
  <%= iv_spd3_cool_cap_vs_temp_curve_nm %>,  !- Speed 3 Total Cooling Capacity Function of Temperature Curve Name
  <%= iv_spd3_cool_cap_vs_flow_curve_nm %>,  !- Speed 3 Total Cooling Capacity Function of Flow Fraction Curve Name
  <%= iv_spd3_eir_vs_temp_curve_nm %>,  !- Speed 3 Energy Input Ratio Function of Temperature Curve Name
  <%= iv_spd3_eir_vs_flow_curve_nm %>,  !- Speed 3 Energy Input Ratio Function of Flow Fraction Curve Name
  <%= iv_spd3_plf_curve_nm %>,  !- Speed 3 Part Load Fraction Correlation Curve Name
  <%= iv_spd3_time_cond_removal_begin %>,                    !- Speed 3 Nominal Time for Condensate Removal to Begin {s}
  <%= iv_spd3_ratio_evap_rate %>,             !- Speed 3 Ratio of Initial Moisture Evaporation Rate and steady state Latent Capacity
  <%= iv_spd3_max_cyc_rate %>,                       !- Speed 3 Maximum Cycling Rate {cycles/hr}
  <%= iv_spd3_latent_cap_time_const %>,                      !- Speed 3 Latent Capacity Time Constant {s}
  <%= iv_spd3_waste_heat_frac_of_pwr %>,                     !- Speed 3 Rated Waste Heat Fraction of Power Input
  <%= iv_spd3_waste_heat_vs_temp_curve_nm %>,  !- Speed 3 Waste Heat Function of Temperature Curve Name
  <%= iv_spd3_evap_cond_eff %>,                        !- Speed 3 Evaporative Condenser Effectiveness
  <%= iv_spd3_evap_cond_airflow_rate %>,          !- Speed 3 Evaporative Condenser Air Flow RateEvaporative Condenser Air Flow Rate {m^3/s}
  ,                        !- Speed 3 Rated Evaporative Condenser Pump Power Consumption {W}
  <%= iv_spd4_tot_cool_cap %>,                !- Speed 4 Gross Rated Total Cooling Capacity {W}
  <%= iv_spd4_gross_shr %>,                !- Speed 4 Gross Rated Sensible Heat Ratio
  <%= iv_spd4_cop %>,  !- Speed 4 Gross Rated Cooling COP
  <%= iv_spd4_rated_airflow_rt %>,                !- Speed 4 Rated Air Flow Rate {m^3/s}
  ,                        !- 2017 Speed 4 Rated Evaporator Fan Power Per Volume Flow Rate {W/(m^3/s)}
  ,                        !- 2023 Speed 4 Rated Evaporator Fan Power Per Volume Flow Rate {W/(m^3/s)}
  <%= iv_spd4_cool_cap_vs_temp_curve_nm %>,  !- Speed 4 Total Cooling Capacity Function of Temperature Curve Name
  <%= iv_spd4_cool_cap_vs_flow_cirve_nm %>,  !- Speed 4 Total Cooling Capacity Function of Flow Fraction Curve Name
  <%= iv_spd4_eir_vs_temp_curve_nm %>,  !- Speed 4 Energy Input Ratio Function of Temperature Curve Name
  <%= iv_spd4_eir_vs_flow_curve_nm %>,  !- Speed 4 Energy Input Ratio Function of Flow Fraction Curve Name
  <%= iv_spd4_plf_curve_nm %>,  !- Speed 4 Part Load Fraction Correlation Curve Name
  <%= iv_spd4_nom_time_cond_removal %>,                    !- Speed 4 Nominal Time for Condensate Removal to Begin {s}
  <%= iv_spd4_ratio_moisture_evap_rate %>,           !- Speed 4 Ratio of Initial Moisture Evaporation Rate and steady state Latent Capacity
  <%= iv_spd4_max_cycling_rate %>,                       !- Speed 4 Maximum Cycling Rate {cycles/hr}
  <%= iv_spd4_latent_cap_time_const %>,                      !- Speed 4 Latent Capacity Time Constant {s}
  <%= iv_spd4_waste_heat_frac_power %>,                     !- Speed 4 Rated Waste Heat Fraction of Power Input
  <%= iv_spd4_waste_heat_vs_temp_curve_nm %>,  !- Speed 4 Waste Heat Function of Temperature Curve Name
  <%= iv_spd4_evap_cond_eff %>,  !- Speed 4 Evaporative Condenser Effectiveness
  <%= iv_spd4_evap_cond_af_rate %>,                !- Speed 4 Evaporative Condenser Air Flow Rate {m^3/s}
  ;                        !- Speed 4 Rated Evaporative Condenser Pump Power Consumption {W}

!x!<% if (dx_comp_speed_num == 2) %>
!x!  <% if dx_type == "PNNL" %>
! Following performance curves taken from multi-speed DX PNNL model 90.1-2004 (RetailStandAlone and possibly others)

Curve:Biquadratic,
  <%= unitary_name %> Cool-Cap-fT1,   !- Name
  0.766956,0.0107756,-4.14703e-05,0.00134961,-0.000261144,0.000457488,   !- Coefficients (list)
  12.77778,                !- Minimum Value of x
  23.88889,                !- Maximum Value of x
  21.11111,                !- Minimum Value of y
  46.11111;                !- Maximum Value of y

Curve:Biquadratic,
  <%= unitary_name %> Cool-EIR-fT1,   !- Name
  0.297145,0.0430933,-0.000748766,0.00597727,0.000482112,-0.000956448,   !- Coefficients (List)
  12.77778,                !- Minimum Value of x
  23.88889,                !- Maximum Value of x
  21.11111,                !- Minimum Value of y
  46.11111;                !- Maximum Value of y

Curve:Quadratic,
  <%= unitary_name %> Cool-PLF-fPLR1,   !- Name
  <%= 1 - cool_coil_cd %>,<%= cool_coil_cd %>,0,     !- Coefficients (List)
  0,               !- Minimum Value of x
  1;               !- Maximum Value of x

Curve:Quadratic,
  <%= unitary_name %> Cool-Cap-fFF1,  !- Name
  0.8,0.2,0,   !- Coefficients (List)
  0.5,                     !- Minimum Value of x
  1.5;                     !- Maximum Value of x

Curve:Quadratic,
  <%= unitary_name %> Cool-EIR-fFF1,  !- Name
  1.156,-0.1816,0.0256,   !- Coefficients (List)
  0.5,                     !- Minimum Value of x
  1.5;                     !- Maximum Value of x

Curve:Biquadratic,
  <%= unitary_name %> Cool-Cap-fT2,   !- Name
  0.766956,0.0107756,-4.14703e-05,0.00134961,-0.000261144,0.000457488,   !- Coefficients (list)
  12.77778,                !- Minimum Value of x
  23.88889,                !- Maximum Value of x
  21.11111,                !- Minimum Value of y
  46.11111;                !- Maximum Value of y

Curve:Biquadratic,
  <%= unitary_name %> Cool-EIR-fT2,   !- Name
  0.297145,0.0430933,-0.000748766,0.00597727,0.000482112,-0.000956448,   !- Coefficients (List)
  12.77778,                !- Minimum Value of x
  23.88889,                !- Maximum Value of x
  21.11111,                !- Minimum Value of y
  46.11111;                !- Maximum Value of y

Curve:Quadratic,
  <%= unitary_name %> Cool-PLF-fPLR2,   !- Name
  <%= 1 - cool_coil_cd %>,<%= cool_coil_cd %>,0,     !- Coefficients (List)
  0,                !- Minimum Value of x
  1;                !- Maximum Value of x

Curve:Quadratic,
  <%= unitary_name %> Cool-Cap-fFF2,                          !- Name
  0.8,0.2,0,   !- Coefficients (List)
  0.5,                     !- Minimum Value of x
  1.5;                     !- Maximum Value of x

Curve:Quadratic,
  <%= unitary_name %> Cool-EIR-fFF2,                          !- Name
  1.156,-0.1816,0.0256,   !- Coefficients (List)
  0.5,                     !- Minimum Value of x
  1.5;                     !- Maximum Value of x
!x!  <% elsif dx_type == "PNNL-Lennox10ton" %>
  ! Following performance curves taken from multi-speed DX PNNL model 90.1-2004 (RestaurantFastFood)
!x!    <% for i in 1..2 %>

  Curve:Biquadratic,
    <%= unitary_name %> Cool-Cap-fT<%= i %>,   !- Name
    0.42415,0.04426,-0.00042,0.00333,-8.0e-05,-0.00021,   !- Coefficients (list)
    17,                      !- Minimum Value of x
    22,                      !- Maximum Value of x
    29,                      !- Minimum Value of y
    46;                      !- Maximum Value of y

  Curve:Biquadratic,
    <%= unitary_name %> Cool-EIR-fT<%= i %>,   !- Name
    1.23649,-0.02431,0.00057,-0.01434,0.00063,-0.00038,   !- Coefficients (List)
    17,                      !- Minimum Value of x
    22,                      !- Maximum Value of x
    29,                      !- Minimum Value of y
    46;                      !- Maximum Value of y

  Curve:Quadratic,
    <%= unitary_name %> Cool-PLF-fPLR<%= i %>,   !- Name
    0.771,0.229,0,0,     !- Coefficients (List)
    0,               !- Minimum Value of x
    1;               !- Maximum Value of x

  Curve:Quadratic,
    <%= unitary_name %> Cool-Cap-fFF<%= i %>,  !- Name
    0.77136,0.34053,-0.11088,   !- Coefficients (List)
    0.75918,                 !- Minimum Value of x
    1.13877;                 !- Maximum Value of x

  Curve:Quadratic,
    <%= unitary_name %> Cool-EIR-fFF<%= i %>,  !- Name
    1.2055,-0.32953,0.12308,   !- Coefficients (List)
    0.75918,                 !- Minimum Value of x
    1.13877;                 !- Maximum Value of x
!x!    <% end %>

!x!  <% elsif dx_type == "Measured_CoolCStandard10Ton" %>
  ! Following performance curves taken from two-speed DX coils from DOE retail-supermarket model 2004
  Curve:Biquadratic,
    <%= unitary_name %> Cool-Cap-fT1,   !- Name
    0.52357,0.03478,0,-0.001915,-0.00010838,0,   !- Coefficients (list)
    11.1,                      !- Minimum Value of x
    29.4,                      !- Maximum Value of x
    10,                      !- Minimum Value of y
    50.3;                      !- Maximum Value of y

  Curve:Biquadratic,
    <%= unitary_name %> Cool-EIR-fT1,   !- Name
    0.9847,-0.04285,0.0013562,0.009934,0.0006398,-0.001169,   !- Coefficients (List)
    11.1,                      !- Minimum Value of x
    29.4,                      !- Maximum Value of x
    10,                      !- Minimum Value of y
    50.3;                      !- Maximum Value of y

  Curve:Biquadratic,
    <%= unitary_name %> Cool-Cap-fT2,   !- Name
    0.4136,0.03105,0,0.006952,-0.0002128,0,   !- Coefficients (list)
    11.1,                      !- Minimum Value of x
    29.4,                      !- Maximum Value of x
    10,                      !- Minimum Value of y
    50.3;                      !- Maximum Value of y

  Curve:Biquadratic,
    <%= unitary_name %> Cool-EIR-fT2,   !- Name
    1.1389,-0.04518,0.0014298,0.006044,0.0006745,-0.0012325,   !- Coefficients (List)
    11.1,                      !- Minimum Value of x
    29.4,                      !- Maximum Value of x
    10,                      !- Minimum Value of y
    50.3;                      !- Maximum Value of y

!x!  <% for i in 1..2 %>
  Curve:Quadratic,
    <%= unitary_name %> Cool-PLF-fPLR<%= i %>,   !- Name
    <%= 1 - cool_coil_cd %>,<%= cool_coil_cd %>,0,     !- Coefficients (List)
    0,               !- Minimum Value of x
    1;               !- Maximum Value of x

  Curve:Quadratic,
    <%= unitary_name %> Cool-Cap-fFF<%= i %>,  !- Name
    0.7685,0.2315,0,   !- Coefficients (List)
    0.776,                 !- Minimum Value of x
    1.197;                 !- Maximum Value of x

  Curve:Quadratic,
    <%= unitary_name %> Cool-EIR-fFF<%= i %>,  !- Name
    1.192,-0.1917,0,   !- Coefficients (List)
    0.776,                 !- Minimum Value of x
    1.197;                 !- Maximum Value of x
!x!  <% end %>

!x!  <% else %>
! Following performance curves taken from two-speed ASHP system in BeOpt

Curve:Biquadratic,
  <%= unitary_name %> Cool-Cap-fT1,   !- Name
  1.658788451,-0.0834530076,0.00342409032,0.0024332436,-0.000045036,-0.00053367984,   !- Coefficients (list)
  13.88,          !- Minimum Value of x
  23.88,          !- Maximum Value of x
  18.33,          !- Minimum Value of y
  51.66;          !- Maximum Value of y

Curve:Biquadratic,
  <%= unitary_name %> Cool-EIR-fT1,   !- Name
  -0.5829157010000001,0.1581006726,-0.00439794684,-0.020335122,0.00107983368,-0.0006395922,   !- Coefficients (List)
  13.88,          !- Minimum Value of x
  23.88,          !- Maximum Value of x
  18.33,          !- Minimum Value of y
  51.66;          !- Maximum Value of y

Curve:Quadratic,
  <%= unitary_name %> Cool-PLF-fPLR1,   !- Name
  <%= 1 - cool_coil_cd %>,<%= cool_coil_cd %>,0,     !- Coefficients (List)
  0,               !- Minimum Value of x
  1,               !- Maximum Value of x
  0.7,             !- Minimum Value of y
  1;               !- Maximum Value of y

Curve:Quadratic,
  <%= unitary_name %> Cool-Cap-fFF1,  !- Name
  0.655239515,0.511655216,-0.166894731,   !- Coefficients (List)
  0,                                      !- Minimum Value of x
  2,                                      !- Maximum Value of x
  0,                                      !- Minimum Value of y
  2;                                      !- Maximum Value of y

Curve:Quadratic,
  <%= unitary_name %> Cool-EIR-fFF1,  !- Name
  1.639108268,-0.998953996,0.359845728,   !- Coefficients (List)
  0,                                      !- Minimum Value of x
  2,                                      !- Maximum Value of x
  0,                                      !- Minimum Value of y
  2;                                      !- Maximum Value of y

Curve:Biquadratic,
  <%= unitary_name %> Cool-Cap-fT2,   !- Name
  1.472738138,-0.0672218352,0.0029199042,0.0000516006,-0.0000297756,-0.00035908596,   !- Coefficients (list)
  13.88,          !- Minimum Value of x
  23.88,          !- Maximum Value of x
  18.33,          !- Minimum Value of y
  51.66;          !- Maximum Value of y

Curve:Biquadratic,
  <%= unitary_name %> Cool-EIR-fT2,   !- Name
  -0.4881955970000001,0.0991621818,-0.00236967444,0.019503441,0.0004297698,-0.00109743984,   !- Coefficients (List)
  13.88,          !- Minimum Value of x
  23.88,          !- Maximum Value of x
  18.33,          !- Minimum Value of y
  51.66;          !- Maximum Value of y

Curve:Quadratic,
  <%= unitary_name %> Cool-PLF-fPLR2,   !- Name
  <%= 1 - cool_coil_cd %>,<%= cool_coil_cd %>,0,     !- Coefficients (List)
  0,                !- Minimum Value of x
  1,                !- Maximum Value of x
  0.7,              !- Minimum Value of y
  1;                !- Maximum Value of y

Curve:Quadratic,
  <%= unitary_name %> Cool-Cap-fFF2,                          !- Name
  0.618281092,0.569060264,-0.187341356,   !- Coefficients (List)
  0,                                      !- Minimum Value of x
  2,                                      !- Maximum Value of x
  0,                                      !- Minimum Value of y
  2;                                      !- Maximum Value of y

Curve:Quadratic,
  <%= unitary_name %> Cool-EIR-fFF2,                          !- Name
  1.570774717,-0.914152018,0.343377302,   !- Coefficients (List)
  0,                                      !- Minimum Value of x
  2,                                      !- Maximum Value of x
  0,                                      !- Minimum Value of y
  2;                                      !- Maximum Value of y
!x!<% end # if dx_type == "PNNL" %>

!x!<% elsif (dx_comp_speed_num > 2) %>
!x!<% if (dx_type == "PACKAGED" or dx_type == "TERMINAL") %>
! Following performance curves taken from four-speed ASHP system in BeOpt

Curve:Biquadratic,
  <%= unitary_name %> Cool-Cap-fT1,   !- Name
  1.7139851972,-0.0746167716,0.00297468936,0.00577633536,-0.000103131468,-0.00066888504,   !- Coefficients (list)
  13.88,          !- Minimum Value of x
  23.88,          !- Maximum Value of x
  18.33,          !- Minimum Value of y
  51.66;          !- Maximum Value of y

Curve:Biquadratic,
  <%= unitary_name %> Cool-EIR-fT1,   !- Name
  -0.0459238618,0.06829090668,-0.00219033396,-0.01723331952,0.00103872132,-0.000199631628,   !- Coefficients (List)
  13.88,          !- Minimum Value of x
  23.88,          !- Maximum Value of x
  18.33,          !- Minimum Value of y
  51.66;          !- Maximum Value of y

Curve:Quadratic,
  <%= unitary_name %> Cool-PLF-fPLR1,   !- Name
  <%= 1 - cool_coil_cd %>,<%= cool_coil_cd %>,0,     !- Coefficients (List)
  0,                !- Minimum Value of x
  1,                !- Maximum Value of x
  0.7,              !- Minimum Value of y
  1;                !- Maximum Value of y

Curve:Quadratic,
  <%= unitary_name %> Cool-Cap-fFF1,   !- Name
  1,0,0,           !- Coefficients (List)
  0,               !- Minimum Value of x
  2,               !- Maximum Value of x
  0,               !- Minimum Value of y
  2;               !- Maximum Value of y

Curve:Quadratic,
  <%= unitary_name %> Cool-EIR-fFF1,   !- Name
  1,0,0,           !- Coefficients (List)
  0,               !- Minimum Value of x
  2,               !- Maximum Value of x
  0,               !- Minimum Value of y
  2;               !- Maximum Value of y

Curve:Biquadratic,
  <%= unitary_name %> Cool-Cap-fT2,   !- Name
  1.15285674,-0.0245373048,0.00176665212,0.0058603014,-0.00007723512,-0.00066472488,   !- Coefficients (list)
  13.88,          !- Minimum Value of x
  23.88,          !- Maximum Value of x
  18.33,          !- Minimum Value of y
  51.66;          !- Maximum Value of y

Curve:Biquadratic,
  <%= unitary_name %> Cool-EIR-fT2,   !- Name
  1.7046091386,-0.10488220416,0.00218213676,-0.01672851276,0.000954018,-0.000126467244,   !- Coefficients (List)
  13.88,          !- Minimum Value of x
  23.88,          !- Maximum Value of x
  18.33,          !- Minimum Value of y
  51.66;          !- Maximum Value of y

Curve:Quadratic,
  <%= unitary_name %> Cool-PLF-fPLR2,   !- Name
  <%= 1 - cool_coil_cd %>,<%= cool_coil_cd %>,0,     !- Coefficients (List)
  0,                !- Minimum Value of x
  1,                !- Maximum Value of x
  0.7,              !- Minimum Value of y
  1;                !- Maximum Value of y

Curve:Quadratic,
  <%= unitary_name %> Cool-Cap-fFF2,   !- Name
  1,0,0,           !- Coefficients (List)
  0,               !- Minimum Value of x
  2,               !- Maximum Value of x
  0,               !- Minimum Value of y
  2;               !- Maximum Value of y

Curve:Quadratic,
  <%= unitary_name %> Cool-EIR-fFF2,   !- Name
  1,0,0,           !- Coefficients (List)
  0,               !- Minimum Value of x
  2,               !- Maximum Value of x
  0,               !- Minimum Value of y
  2;               !- Maximum Value of y

Curve:Biquadratic,
  <%= unitary_name %> Cool-Cap-fT3,   !- Name
  0.6461992122,0.0213513228,0.00065910348,0.00693808596,-0.000067378068,-0.00068810796,   !- Coefficients (list)
  13.88,          !- Minimum Value of x
  23.88,          !- Maximum Value of x
  18.33,          !- Minimum Value of y
  51.66;          !- Maximum Value of y

Curve:Biquadratic,
  <%= unitary_name %> Cool-EIR-fT3,   !- Name
  -0.0062540160000003,0.0463319604,-0.00142349076,0.0118725714,0.00048109464,-0.00051695172,   !- Coefficients (List)
  13.88,          !- Minimum Value of x
  23.88,          !- Maximum Value of x
  18.33,          !- Minimum Value of y
  51.66;          !- Maximum Value of y

Curve:Quadratic,
  <%= unitary_name %> Cool-PLF-fPLR3,   !- Name
  <%= 1 - cool_coil_cd %>,<%= cool_coil_cd %>,0,     !- Coefficients (List)
  0,                !- Minimum Value of x
  1,                !- Maximum Value of x
  0.7,              !- Minimum Value of y
  1;                !- Maximum Value of y

Curve:Quadratic,
  <%= unitary_name %> Cool-Cap-fFF3,   !- Name
  1,0,0,           !- Coefficients (List)
  0,               !- Minimum Value of x
  2,               !- Maximum Value of x
  0,               !- Minimum Value of y
  2;               !- Maximum Value of y

Curve:Quadratic,
  <%= unitary_name %> Cool-EIR-fFF3,   !- Name
  1,0,0,           !- Coefficients (List)
  0,               !- Minimum Value of x
  2,               !- Maximum Value of x
  0,               !- Minimum Value of y
  2;               !- Maximum Value of y

Curve:Biquadratic,
  <%= unitary_name %> Cool-Cap-fT4,   !- Name
  0.9177891678000001,-0.0060322572,0.00136327212,0.00532574064,-0.000056581092,-0.00063857808,   !- Coefficients (list)
  13.88,          !- Minimum Value of x
  23.88,          !- Maximum Value of x
  18.33,          !- Minimum Value of y
  51.66;          !- Maximum Value of y

Curve:Biquadratic,
  <%= unitary_name %> Cool-EIR-fT4,   !- Name
  -0.5184327770000003,0.0992787624,-0.00276048324,0.013988232,0.00043519356,-0.00055720224,   !- Coefficients (List)
  13.88,          !- Minimum Value of x
  23.88,          !- Maximum Value of x
  18.33,          !- Minimum Value of y
  51.66;          !- Maximum Value of y

Curve:Quadratic,
  <%= unitary_name %> Cool-PLF-fPLR4,   !- Name
  <%= 1 - cool_coil_cd %>,<%= cool_coil_cd %>,0,     !- Coefficients (List)
  0,                !- Minimum Value of x
  1,                !- Maximum Value of x
  0.7,              !- Minimum Value of y
  1;                !- Maximum Value of y

Curve:Quadratic,
  <%= unitary_name %> Cool-Cap-fFF4,   !- Name
  1,0,0,           !- Coefficients (List)
  0,               !- Minimum Value of x
  2,               !- Maximum Value of x
  0,               !- Minimum Value of y
  2;               !- Maximum Value of y

Curve:Quadratic,
  <%= unitary_name %> Cool-EIR-fFF4,   !- Name
  1,0,0,           !- Coefficients (List)
  0,               !- Minimum Value of x
  2,               !- Maximum Value of x
  0,               !- Minimum Value of y
  2;               !- Maximum Value of y

!x!<% elsif (dx_type == "SPLIT") %>
! Following performance curves taken from four-speed SPLIT Heat Pump system in BeOpt (based on Fujitsu 12RLS SPLIT unit testing in NREL report at http://www.nrel.gov/docs/fy11osti/52175.pdf)

Curve:Biquadratic,
  <%= unitary_name %> Cool-Cap-fT1,   !- Name
  1.008993521905866,0.006512749025457,0,0.003917565735935,-0.000222646705889,0,   !- Coefficients (list)
  13.88,          !- Minimum Value of x
  23.88,          !- Maximum Value of x
  18.33,          !- Minimum Value of y
  51.66;          !- Maximum Value of y

Curve:Biquadratic,
  <%= unitary_name %> Cool-EIR-fT1,   !- Name
  0.429214441601141,-0.003604841598515,0.000045783162727,0.026490875804937,-0.000159212286878,-0.000159062656483,   !- Coefficients (List)
  13.88,          !- Minimum Value of x
  23.88,          !- Maximum Value of x
  18.33,          !- Minimum Value of y
  51.66;          !- Maximum Value of y

Curve:Quadratic,
  <%= unitary_name %> Cool-PLF-fPLR1,   !- Name
  <%= 1 - cool_coil_cd %>,<%= cool_coil_cd %>,0,     !- Coefficients (List)
  0,                !- Minimum Value of x
  1,                !- Maximum Value of x
  0.7,              !- Minimum Value of y
  1;                !- Maximum Value of y

Curve:Quadratic,
  <%= unitary_name %> Cool-Cap-fFF1,   !- Name
  1,0,0,           !- Coefficients (List)
  0,               !- Minimum Value of x
  2,               !- Maximum Value of x
  0,               !- Minimum Value of y
  2;               !- Maximum Value of y

Curve:Quadratic,
  <%= unitary_name %> Cool-EIR-fFF1,   !- Name
  1,0,0,           !- Coefficients (List)
  0,               !- Minimum Value of x
  2,               !- Maximum Value of x
  0,               !- Minimum Value of y
  2;               !- Maximum Value of y

Curve:Biquadratic,
  <%= unitary_name %> Cool-Cap-fT2,   !- Name
  1.008993521905866,0.006512749025457,0,0.003917565735935,-0.000222646705889,0,   !- Coefficients (list)
  13.88,          !- Minimum Value of x
  23.88,          !- Maximum Value of x
  18.33,          !- Minimum Value of y
  51.66;          !- Maximum Value of y

Curve:Biquadratic,
  <%= unitary_name %> Cool-EIR-fT2,   !- Name
  0.429214441601141,-0.003604841598515,0.000045783162727,0.026490875804937,-0.000159212286878,-0.000159062656483,   !- Coefficients (List)
  13.88,          !- Minimum Value of x
  23.88,          !- Maximum Value of x
  18.33,          !- Minimum Value of y
  51.66;          !- Maximum Value of y

Curve:Quadratic,
  <%= unitary_name %> Cool-PLF-fPLR2,   !- Name
  <%= 1 - cool_coil_cd %>,<%= cool_coil_cd %>,0,     !- Coefficients (List)
  0,                !- Minimum Value of x
  1,                !- Maximum Value of x
  0.7,              !- Minimum Value of y
  1;                !- Maximum Value of y

Curve:Quadratic,
  <%= unitary_name %> Cool-Cap-fFF2,   !- Name
  1,0,0,           !- Coefficients (List)
  0,               !- Minimum Value of x
  2,               !- Maximum Value of x
  0,               !- Minimum Value of y
  2;               !- Maximum Value of y

Curve:Quadratic,
  <%= unitary_name %> Cool-EIR-fFF2,   !- Name
  1,0,0,           !- Coefficients (List)
  0,               !- Minimum Value of x
  2,               !- Maximum Value of x
  0,               !- Minimum Value of y
  2;               !- Maximum Value of y

Curve:Biquadratic,
  <%= unitary_name %> Cool-Cap-fT3,   !- Name
  1.008993521905866,0.006512749025457,0,0.003917565735935,-0.000222646705889,0,   !- Coefficients (list)
  13.88,          !- Minimum Value of x
  23.88,          !- Maximum Value of x
  18.33,          !- Minimum Value of y
  51.66;          !- Maximum Value of y

Curve:Biquadratic,
  <%= unitary_name %> Cool-EIR-fT3,   !- Name
  0.429214441601141,-0.003604841598515,0.000045783162727,0.026490875804937,-0.000159212286878,-0.000159062656483,   !- Coefficients (List)
  13.88,          !- Minimum Value of x
  23.88,          !- Maximum Value of x
  18.33,          !- Minimum Value of y
  51.66;          !- Maximum Value of y

Curve:Quadratic,
  <%= unitary_name %> Cool-PLF-fPLR3,   !- Name
  <%= 1 - cool_coil_cd %>,<%= cool_coil_cd %>,0,     !- Coefficients (List)
  0,                !- Minimum Value of x
  1,                !- Maximum Value of x
  0.7,              !- Minimum Value of y
  1;                !- Maximum Value of y

Curve:Quadratic,
  <%= unitary_name %> Cool-Cap-fFF3,   !- Name
  1,0,0,           !- Coefficients (List)
  0,               !- Minimum Value of x
  2,               !- Maximum Value of x
  0,               !- Minimum Value of y
  2;               !- Maximum Value of y

Curve:Quadratic,
  <%= unitary_name %> Cool-EIR-fFF3,   !- Name
  1,0,0,           !- Coefficients (List)
  0,               !- Minimum Value of x
  2,               !- Maximum Value of x
  0,               !- Minimum Value of y
  2;               !- Maximum Value of y

Curve:Biquadratic,
  <%= unitary_name %> Cool-Cap-fT4,   !- Name
  1.008993521905866,0.006512749025457,0,0.003917565735935,-0.000222646705889,0,   !- Coefficients (list)
  13.88,          !- Minimum Value of x
  23.88,          !- Maximum Value of x
  18.33,          !- Minimum Value of y
  51.66;          !- Maximum Value of y

Curve:Biquadratic,
  <%= unitary_name %> Cool-EIR-fT4,   !- Name
  0.429214441601141,-0.003604841598515,0.000045783162727,0.026490875804937,-0.000159212286878,-0.000159062656483,   !- Coefficients (List)
  13.88,          !- Minimum Value of x
  23.88,          !- Maximum Value of x
  18.33,          !- Minimum Value of y
  51.66;          !- Maximum Value of y

Curve:Quadratic,
  <%= unitary_name %> Cool-PLF-fPLR4,   !- Name
  <%= 1 - cool_coil_cd %>,<%= cool_coil_cd %>,0,     !- Coefficients (List)
  0,                !- Minimum Value of x
  1,                !- Maximum Value of x
  0.7,              !- Minimum Value of y
  1;                !- Maximum Value of y

Curve:Quadratic,
  <%= unitary_name %> Cool-Cap-fFF4,   !- Name
  1,0,0,           !- Coefficients (List)
  0,               !- Minimum Value of x
  2,               !- Maximum Value of x
  0,               !- Minimum Value of y
  2;               !- Maximum Value of y

Curve:Quadratic,
  <%= unitary_name %> Cool-EIR-fFF4,   !- Name
  1,0,0,           !- Coefficients (List)
  0,               !- Minimum Value of x
  2,               !- Maximum Value of x
  0,               !- Minimum Value of y
  2;               !- Maximum Value of y
!x!<% end %>

Curve:Biquadratic,
  <%= unitary_name %> Cool-Waste,         !- Name
  1,0,0,0,0,0,   !- Coefficients (List)
  -100,               !- Minimum Value of x
  100,                !- Maximum Value of x
  -100,               !- Minimum Value of y
  100;                !- Maximum Value of y
!x!<% end %>



!x!<% elsif (cool_coil_type == "DX-WATER") %>
!x!  <% if (dx_comp_speed_num == 1) %>
!x!
!x!<% if (fan_config == "DRAW-THROUGH")
!x!  iv_air_inlet_node_nm = unitary_name + " Unitary Inlet Node"
!x!else
!x!  iv_air_inlet_node_nm = unitary_name + " Supply Fan Outlet Node"
!x!end %>
!x!
!x!<% if (fan_config == "BLOW-THROUGH" and heat_coil_type == "NONE" and aux_heat_coil_type == "NONE")
!x!  iv_air_outlet_node_nm = unitary_name + " Unitary Outlet Node"
!x!else
!x!  iv_air_outlet_node_nm = unitary_name + " Cooling Coil Outlet Node"
!x!end %>

Coil:Cooling:WaterToAirHeatPump:EquationFit,
  <%= unitary_name %> Cooling Coil,  !- Name
  <%= unitary_name %> Water Source Inlet Node,  !- Water Inlet Node Name
  <%= unitary_name %> Water Source Intermediate Node,  !- Water Outlet Node Name
  <%= iv_air_inlet_node_nm %>,  !- Air Inlet Node Name
  <%= iv_air_outlet_node_nm %>,  !- Air Outlet Node Name
  Autosize,                !- Rated Air Flow Rate {m3/s}
  Autosize,                !- Rated Water Flow Rate {m3/s}
  Autosize,                !- Gross Rated Total Cooling Capacity {W}
  Autosize,                !- Gross Rated Sensible Cooling Capacity
  <%= cool_coil_cop %>,        !- Gross Rated Cooling COP {W/W}
  30,                      !- Rated Entering Water Temperature {C}
  27,                      !- Rated Entering Air Dry-Bulb Temperature {C}
  19,                      !- Rated Entering Air Wet-Bulb Temperature {C}
  <%= unitary_name %> WSHP Tot Cool Cap,  !- Total Cooling Capacity Curve Name
  <%= unitary_name %> WSHP Sens Cool Cap,  !- Sensible Cooling Capacity Curve Name
  <%= unitary_name %> WSHP Cool Power,  !- Cooling Power Consumption Curve Name
  0,                       !- Nominal Time for Condensate Removal to Begin {s}
  0;                       !- Ratio of Initial Moisture Evaporation Rate and Steady State Latent Capacity {dimensionless}

Curve:QuadLinear,
  <%= unitary_name %> WSHP Tot Cool Cap,  !- Name
  -4.30266987344639,       !- Coefficient1 Constant
  7.18536990534372,        !- Coefficient2 w
  -2.23946714486189,       !- Coefficient3 x
  0.139995928440879,       !- Coefficient4 y
  0.102660179888915,       !- Coefficient5 z
  -100,                    !- Minimum Value of w
  100,                     !- Maximum Value of w
  -100,                    !- Minimum Value of x
  100,                     !- Maximum Value of x
  -100,                    !- Minimum Value of y
  100,                     !- Maximum Value of y
  -100,                    !- Minimum Value of z
  100;                     !- Maximum Value of z

Curve:QuintLinear,
  <%= unitary_name %> WSHP Sens Cool Cap,  !- Name
  6.0019444814887,         !- Coefficient1 Constant
  22.6300677244073,        !- Coefficient2 v
  -26.7960783730934,       !- Coefficient3 w
  -1.72374720346819,       !- Coefficient4 x
  0.490644802367817,       !- Coefficient5 y
  0.0693119353468141,      !- Coefficient6 z
  -100,                    !- Minimum Value of v
  100,                     !- Maximum Value of v
  -100,                    !- Minimum Value of w
  100,                     !- Maximum Value of w
  -100,                    !- Minimum Value of x
  100,                     !- Maximum Value of x
  -100,                    !- Minimum Value of y
  100,                     !- Maximum Value of y
  -100,                    !- Minimum Value of z
  100;                     !- Maximum Value of z

Curve:QuadLinear,
  <%= unitary_name %> WSHP Cool Power,  !- Name
  -5.67775976415698,       !- Coefficient1 Constant
  0.438988156976704,       !- Coefficient2 w
  5.845277342193,          !- Coefficient3 x
  0.141605667000125,       !- Coefficient4 y
  -0.168727936032429,      !- Coefficient5 z
  -100,                    !- Minimum Value of w
  100,                     !- Maximum Value of w
  -100,                    !- Minimum Value of x
  100,                     !- Maximum Value of x
  -100,                    !- Minimum Value of y
  100,                     !- Maximum Value of y
  -100,                    !- Minimum Value of z
  100;                     !- Maximum Value of z

!x!  <% elsif (dx_comp_speed_num > 1) %>

!x!<% if (fan_config == "DRAW-THROUGH")
!x!  iv_indoor_air_inlet_node_nm = unitary_name + " Unitary Inlet Node"
!x!else
!x!  iv_indoor_air_inlet_node_nm = unitary_name + " Supply Fan Outlet Node"
!x!end %>
!x!
!x!<% if (fan_config == "BLOW-THROUGH" and heat_coil_type == "NONE" and aux_heat_coil_type == "NONE")
!x!  iv_indoor_air_outlet_node_nm = unitary_name + " Unitary Outlet Node"
!x!else
!x!  iv_indoor_air_outlet_node_nm = unitary_name + " Cooling Coil Outlet Node"
!x!end %>
!x!<%# Reference ratings normalized for 3 GPM/ton and 400 CFM/ton. %>

Coil:Cooling:WaterToAirHeatPump:VariableSpeedEquationFit,
  <%= unitary_name %> Cooling Coil,  !- Name
  <%= unitary_name %> Water Source Inlet Node,  !- Water-to-Refrigerant HX Water Inlet Node Name
  <%= unitary_name %> Water Source Intermediate Node,  !- Water-to-Refrigerant HX Water Outlet Node Name
  <%= iv_indoor_air_inlet_node_nm %>,  !- Indoor Air Inlet Node Name
  <%= iv_indoor_air_outlet_node_nm %>,  !- Indoor Air Outlet Node Name
  1,                       !- Number of Speeds {dimensionless}
  1,                       !- Nominal Speed Level {dimensionless}
  Autosize,                !- Gross Rated Total Cooling Capacity At Selected Nominal Speed Level {w}
  Autosize,                !- Rated Air Flow Rate At Selected Nominal Speed Level {m3/s}
  Autosize,                !- Rated Water Flow Rate At Selected Nominal Speed Level {m3/s}
  1000,                    !- Nominal Time for Condensate to Begin Leaving the Coil {s}
  1.5,                     !- Initial Moisture Evaporation Rate Divided by Steady-State AC Latent Capacity {dimensionless}
  0,                       !- Flag for Using Hot Gas Reheat, 0 or 1 {dimensionless}
  <%= unitary_name %> VS Energy Part Load Fraction,  !- Energy Part Load Fraction Curve Name
  1.0,                     !- Speed 1 Reference Unit Gross Rated Total Cooling Capacity {w}
  0.75,                    !- Speed 1 Reference Unit Gross Rated Sensible Heat Ratio {dimensionless}
  <%= cool_coil_cop %>,    !- Speed 1 Reference Unit Gross Rated Cooling COP {dimensionless}
  0.000053726168,          !- Speed 1 Reference Unit Rated Air Flow Rate {m3/s}
  0.00000005386608,        !- Speed 1 Reference Unit Rated Water Flow Rate {m3/s}
  <%= unitary_name %> Cooling VS Temp1 Test,  !- Speed 1 Total Cooling Capacity Function of Temperature Curve Name
  <%= unitary_name %> Cooling VS AirFrac Test,  !- Speed 1 Total Cooling Capacity Function of Air Flow Fraction Curve Name
  <%= unitary_name %> Cooling VS WaterFrac Test,  !- Speed 1 Total Cooling Capacity Function of Water Flow Fraction Curve Name
  <%= unitary_name %> Cooling EIR VS Temp1 Test,  !- Speed 1 Energy Input Ratio Function of Temperature Curve Name
  <%= unitary_name %> Cooling EIR VS AirFrac Test,  !- Speed 1 Energy Input Ratio Function of Air Flow Fraction Curve Name
  <%= unitary_name %> Cooling EIR VS WaterFrac Test,  !- Speed 1 Energy Input Ratio Function of Water Flow Fraction Curve Name
  0.1,                     !- Speed 1 Reference Unit Waste Heat Fraction of Input Power At Rated Conditions {dimensionless}
  <%= unitary_name %> Cooling WasteHeat VS Temp1 Test;  !- Speed 1 Waste Heat Function of Temperature Curve Name

Curve:Quadratic,
  <%= unitary_name %> VS Energy Part Load Fraction,  !- Name
  0.85,                    !- Coefficient1 Constant
  0.15,                    !- Coefficient2 x
  0.0,                     !- Coefficient3 x**2
  0.0,                     !- Minimum Value of x
  1.0;                     !- Maximum Value of x

Curve:Biquadratic,
  <%= unitary_name %> Cooling VS Temp1 Test,  !- Name
  1.43085,                 !- Coefficient1 Constant
  -0.0453653,              !- Coefficient2 x
  0.00199378,              !- Coefficient3 x**2
  -0.00805944,             !- Coefficient4 y
  3.93414E-05,             !- Coefficient5 y**2
  -1.81187E-04,            !- Coefficient6 x*y
  10.0,                    !- Minimum Value of x
  25.6,                    !- Maximum Value of x
  7.2,                     !- Minimum Value of y
  48.9;                    !- Maximum Value of y

Curve:Quadratic,
  <%= unitary_name %> Cooling VS AirFrac Test,  !- Name
  1.0,                     !- Coefficient1 Constant
  0.0,                     !- Coefficient2 x
  0.0,                     !- Coefficient3 x**2
  0.0,                     !- Minimum Value of x
  1.0;                     !- Maximum Value of x

Curve:Quadratic,
  <%= unitary_name %> Cooling VS WaterFrac Test,  !- Name
  1.0,                     !- Coefficient1 Constant
  0.0,                     !- Coefficient2 x
  0.0,                     !- Coefficient3 x**2
  0.0,                     !- Minimum Value of x
  1.0;                     !- Maximum Value of x

Curve:Biquadratic,
  <%= unitary_name %> Cooling EIR VS Temp1 Test,  !- Name
  0.138848,                !- Coefficient1 Constant
  0.0457985,               !- Coefficient2 x
  -0.00138661,             !- Coefficient3 x**2
  0.0141485,               !- Coefficient4 y
  0.000386055,             !- Coefficient5 y**2
  -4.38194E-04,            !- Coefficient6 x*y
  10.0,                    !- Minimum Value of x
  25.6,                    !- Maximum Value of x
  7.2,                     !- Minimum Value of y
  48.9;                    !- Maximum Value of y

Curve:Quadratic,
  <%= unitary_name %> Cooling EIR VS AirFrac Test,  !- Name
  1.0,                     !- Coefficient1 Constant
  0.0,                     !- Coefficient2 x
  0.0,                     !- Coefficient3 x**2
  0.0,                     !- Minimum Value of x
  1.0;                     !- Maximum Value of x

Curve:Quadratic,
  <%= unitary_name %> Cooling EIR VS WaterFrac Test,  !- Name
  1.0,                     !- Coefficient1 Constant
  0.0,                     !- Coefficient2 x
  0.0,                     !- Coefficient3 x**2
  0.0,                     !- Minimum Value of x
  1.0;                     !- Maximum Value of x

Curve:Biquadratic,
  <%= unitary_name %> Cooling WasteHeat VS Temp1 Test,  !- Name
  1.0,                     !- Coefficient1 Constant
  0,                       !- Coefficient2 x
  0,                       !- Coefficient3 x**2
  0,                       !- Coefficient4 y
  0,                       !- Coefficient5 y**2
  0,                       !- Coefficient6 x*y
  10.0,                    !- Minimum Value of x
  25.6,                    !- Maximum Value of x
  7.2,                     !- Minimum Value of y
  48.9;                    !- Maximum Value of y
!x!  <% end # if (dx_comp_speed_num == 1) %>

!x!<% elsif (cool_coil_type == "WATER") %>
!x!
!x!<% if (fan_config == "DRAW-THROUGH")
!x!  iv_air_inlet_node_nm = unitary_name + " Unitary Inlet Node"
!x!else
!x!  iv_air_inlet_node_nm = unitary_name + " Supply Fan Outlet Node"
!x!end %>
!x!
!x!<% if (fan_config == "BLOW-THROUGH" and heat_coil_type == "NONE" and aux_heat_coil_type == "NONE")
!x!  iv_air_outlet_node_nm = unitary_name + " Unitary Outlet Node"
!x!else
!x!  iv_air_outlet_node_nm = unitary_name + " Cooling Coil Outlet Node"
!x!end %>

Coil:Cooling:Water,
  <%= unitary_name %> Cooling Coil,  !- Name
  ,                        !- Availability Schedule Name
  Autosize,                !- Design Water Flow Rate {m3/s}
  Autosize,                !- Design Air Flow Rate {m3/s}
  Autosize,                !- Design Inlet Water Temperature {C}
  Autosize,                !- Design Inlet Air Temperature {C}
  Autosize,                !- Design Outlet Air Temperature {C}
  Autosize,                !- Design Inlet Air Humidity Ratio {kg-H2O/kg-air}
  Autosize,                !- Design Outlet Air Humidity Ratio {kg-H2O/kg-air}
  <%= unitary_name %> CoolC Inlet Node,  !- Water Inlet Node Name
  <%= unitary_name %> CoolC Outlet Node,  !- Water Outlet Node Name
  <%= iv_air_inlet_node_nm %>,  !- Air Inlet Node Name
  <%= iv_air_outlet_node_nm %>,  !- Air Outlet Node Name
  SimpleAnalysis,          !- Type of Analysis
  CrossFlow,               !- Heat Exchanger Configuration
  <%= clear_water_storage_tank %>;  !- Condensate Collection Water Storage Tank Name

Branch,
  <%= unitary_name %> CHW Branch,  !- Name
  ,                        !- Pressure Drop Curve Name
  Coil:Cooling:Water,      !- Component 1 Object Type
  <%= unitary_name %> Cooling Coil,  !- Component 1 Name
  <%= unitary_name %> CoolC Inlet Node,  !- Component 1 Inlet Node Name
  <%= unitary_name %> CoolC Outlet Node;  !- Component 1 Outlet Node Name
!x!<% end %>

!x!<% if (heat_coil_type == "COMBUSTION") %>
!x!
!x! <% if (fan_config == "DRAW-THROUGH" and cool_coil_type == "NONE")
!x!  iv_inlet_air_node_nm = unitary_name + " Unitary Inlet Node"
!x! elsif (fan_config == "BLOW-THROUGH" and cool_coil_type == "NONE")
!x!  iv_inlet_air_node_nm = unitary_name + " Supply Fan Outlet Node"
!x! else
!x!  iv_inlet_air_node_nm = unitary_name + " Cooling Coil Outlet Node"
!x! end %>
!x!
!x! <% if (fan_config == "BLOW-THROUGH" and aux_heat_coil_type == "NONE")
!x!  if false  #(control_type == "Setpoint" and not doas)
!x!   iv_air_outlet_node_nm = unitary_name + " Unitary Outlet Node"
!x!  else
!x!   iv_air_outlet_node_nm = unitary_name + " Unitary Outlet Node"
!x!  end
!x! else
!x!  if false  #(control_type == "Setpoint" and not doas)
!x!   iv_air_outlet_node_nm = unitary_name + " Heating Coil Outlet Node"
!x!  else
!x!   iv_air_outlet_node_nm = unitary_name + " Heating Coil Outlet Node"
!x!  end %>


!x!<%#
!x!  See below: 'and not doas' is probably not the right thing to key off of.
!x!  At least for DOAS, it must _NOT_ have a setpoint node specified in this field.
!x!  Probably 'Temperature Setpoint Node Name' can be removed in all cases.
!x!    for control_type=Load, no setpoint
!x!    for control_type=Setpoint and used in AirLoop, no setpoint
!x!%>
! TEMPORARY: probably breaks ZN-* types
!  <%= unitary_name %> Unitary Outlet Node;  !- Temperature Setpoint Node Name

Coil:Heating:Fuel,
  <%= unitary_name %> Heating Coil,  !- Name
  ,                        !- Availability Schedule Name
  <%= heat_coil_fuel %>,   !- Fuel Type
  <%= heat_coil_eff %>,    !- Gas Burner Efficiency
  <%= heat_coil_cap %>,    !- Nominal Capacity {W}
  <%= iv_inlet_air_node_nm %>,  !- Air Inlet Node Name
  <%= iv_air_outlet_node_nm %>;  !- Air Outlet Node Name
!x!<% end %>

!x!<% elsif (heat_coil_type == "MULTI-STAGE-GAS") %>
!x!
!x!<% if (fan_config == "DRAW-THROUGH" and cool_coil_type == "NONE")
!x!  iv_air_inlet_node_nm = unitary_name + " Unitary Inlet Node"
!x!elsif (fan_config == "BLOW-THROUGH" and cool_coil_type == "NONE")
!x!  iv_air_inlet_node_nm = unitary_name + " Supply Fan Outlet Node"
!x!else
!x!  iv_air_inlet_node_nm = unitary_name + " Cooling Coil Outlet Node"
!x!end %>
!x!
!x!<% if (fan_config == "BLOW-THROUGH" and aux_heat_coil_type == "NONE") 
!x! if false  #(control_type == "Setpoint" and not doas)
!x!  iv_air_outlet_node_nm = unitary_name + " Unitary Outlet Node"
!x! else
!x!  iv_air_outlet_node_nm = unitary_name + " Unitary Outlet Node"
!x! end
!x!else
!x! if false  #(control_type == "Setpoint" and not doas)
!x!  iv_air_outlet_node_nm = unitary_name + " Heating Coil Outlet Node"
!x! else
!x!  iv_air_outlet_node_nm = unitary_name + " Heating Coil Outlet Node"
!x! end
!x!end %>

Coil:Heating:Gas:MultiStage,
  <%= unitary_name %> Heating Coil,  !- Name
  ,                        !- Availability Schedule Name
  <%= iv_air_inlet_node_nm %>,  !- Air Inlet Node Name
  <%= iv_air_outlet_node_nm %>,  !- Air Outlet Node Name
    ,                        !- Temperature Setpoint Node Name
    ,                        !- Part Load Fraction Correlation Curve Name
    ,                        !- Parasitic Gas Load {W}
    2,                       !- Number of Stages
    0.8,                     !- Stage 1 Gas Burner Efficiency {W/W}
    autosize,                !- Stage 1 Nominal Capacity {W}
    ,                        !- Stage 1 Parasitic Electric Load {W}
    0.8,                     !- Stage 2 Gas Burner Efficiency {W/W}
    autosize;                !- Stage 2 Nominal Capacity {W}


!x!<% elsif (heat_coil_type == "RESISTANCE") %>
!x!
!x!<% if (fan_config == "DRAW-THROUGH" and cool_coil_type == "NONE")
!x!  iv_air_inlet_node_nm = unitary_name + " Unitary Inlet Node"
!x!elsif (fan_config == "BLOW-THROUGH" and cool_coil_type == "NONE")
!x!  iv_air_inlet_node_nm = unitary_name + " Supply Fan Outlet Node"
!x!else
!x!  iv_air_inlet_node_nm = unitary_name + " Cooling Coil Outlet Node"
!x!end %>
!x!
!x!<% if (fan_config == "BLOW-THROUGH" and aux_heat_coil_type == "NONE")
!x! if (control_type == "Setpoint" and not doas)
!x!  iv_air_outlet_node_nm = unitary_name + " Unitary Outlet Node"
!x!  iv_temp_setpt_node_nm = unitary_name + " Unitary Outlet Node"
!x! else
!x!  iv_air_outlet_node_nm = unitary_name + " Unitary Outlet Node"
!x!  iv_temp_setpt_node_nm = ""
!x! end
!x!else
!x! if (control_type == "Setpoint" and not doas)
!x!  iv_air_outlet_node_nm = unitary_name + " Heating Coil Outlet Node"
!x!  iv_temp_setpt_node_nm = unitary_name + " Heating Coil Outlet Node"
!x! else
!x!  iv_air_outlet_node_nm = unitary_name + " Heating Coil Outlet Node"
!x!  iv_temp_setpt_node_nm = "" 
!x! end
!x!end %>

Coil:Heating:Electric,
  <%= unitary_name %> Heating Coil,  !- Name
  ,                        !- Availability Schedule Name
  <%= heat_coil_eff %>,    !- Efficiency
  <%= heat_coil_cap %>,    !- Nominal Capacity {W}
  <%= iv_air_inlet_node_nm %>,  !- Air Inlet Node Name
  <%= iv_air_outlet_node_nm %>,  !- Air Outlet Node Name
  <%= iv_temp_setpt_node_nm %>;  !- Temperature Setpoint Node Name

!x!<% elsif (heat_coil_type == "DX-AIR" and dx_comp_speed_num == 1) %>
!x!
!x!<% if (fan_config == "DRAW-THROUGH" and cool_coil_type == "NONE")
!x!  iv_air_inlet_node_nm = unitary_name + " Unitary Inlet Node"
!x!elsif (fan_config == "BLOW-THROUGH" and cool_coil_type == "NONE")
!x!  iv_air_inlet_node_nm = unitary_name + " Supply Fan Outlet Node"
!x!else
!x!  iv_air_inlet_node_nm = unitary_name + " Cooling Coil Outlet Node"
!x!end %>
!x!
!x!<% if (fan_config == "BLOW-THROUGH" and aux_heat_coil_type == "NONE")
!x!  iv_outlet_node_nm = unitary_name + " Unitary Outlet Node"
!x!else
!x!  iv_outlet_node_nm = unitary_name + " Heating Coil Outlet Node"
!x!end %>

Coil:Heating:DX:SingleSpeed,
  <%= unitary_name %> Heating Coil,  !- Name
  ,                        !- Availability Schedule Name
  <%= heat_coil_cap %>,    !- Gross Rated Heating Capacity {W}
  <%= heat_coil_cop_1 %>,  !- Gross Rated Heating COP
  <%= fan_flow %>,         !- Rated Air Flow Rate {m^3/s}
  ,                        !- 2017 Rated Evaporator Fan Power Per Volume Flow Rate {W/(m/s)}
  ,                        !- 2023 Rated Evaporator Fan Power Per Volume Flow Rate {W/(m/s)}
  <%= iv_air_inlet_node_nm %>,  !- Air Inlet Node Name
  <%= iv_outlet_node_nm %>,  !- Air Outlet Node Name
  <%= unitary_name %> HP_Heat-Cap-fT,  !- Total Heating Capacity Function of Temperature Curve Name
  <%= unitary_name %> HP_Heat-Cap-fFF,  !- Total Heating Capacity Function of Flow Fraction Curve Name
  <%= unitary_name %> HP_Heat-EIR-fT,  !- Energy Input Ratio Function of Temperature Curve Name
  <%= unitary_name %> HP_Heat-EIR-fFF,  !- Energy Input Ratio Function of Flow Fraction Curve Name
  <%= unitary_name %> HP_Heat-PLF-fPLR,  !- Part Load Fraction Correlation Curve Name
  <%= unitary_name %> DefrostEIR,  !- Defrost Energy Input Ratio Function of Temperature Curve Name
  <%= hp_min_temp %>,      !- Minimum Outdoor Dry-Bulb Temperature for Compressor Operation {C}
  ,                        !- Outdoor Dry-Bulb Temperature to Turn On Compressor {C}
  <%= hp_defrost_temp %>,  !- Maximum Outdoor Dry-Bulb Temperature for Defrost Operation {C}
  <%= dx_crankcase_cap %>,  !- Crankcase Heater Capacity {W}
  <%= dx_crankcase_max_temp %>,  !- Maximum Outdoor Dry-Bulb Temperature for Crankcase Heater Operation {C}
  ReverseCycle,            !- Defrost Strategy
  OnDemand,                   !- Defrost Control
  ,                     !- Defrost Time Period Fraction
  Autosize;                !- Resistive Defrost Heater Capacity


!x!<% if dx_type == "PNNL"%>
! Following performance curves taken from single-speed DX PNNL model 90.1-2004 (Small Office )
Curve:Cubic,
  <%= unitary_name %> HP_Heat-Cap-fT,   !- Name
  0.758746,0.027626,0.000148716,3.4992e-06,   !- Coefficients (list)
  -20,                     !- Minimum Value of x
  20;                      !- Maximum Value of x

Curve:Cubic,
  <%= unitary_name %> HP_Heat-EIR-fT,   !- Name
  1.19248,-0.0300438,0.00103745,-2.3328e-05,   !- Coefficients (List)
  -20,                     !- Minimum Value of x
  20;                      !- Maximum Value of x

Curve:Quadratic,
  <%= unitary_name %> HP_Heat-PLF-fPLR,   !- Name
  0.85,0.15,0,     !- Coefficients (List)
  0,                       !- Minimum Value of x
  1;                       !- Maximum Value of x

Curve:Cubic,
  <%= unitary_name %> HP_Heat-Cap-fFF,                        !- Name
  0.84,0.16,0,0,   !- Coefficients (List)
  0.5,                     !- Minimum Value of x
  1.5;                     !- Maximum Value of x

Curve:Quadratic,
  <%= unitary_name %> HP_Heat-EIR-fFF,                        !- Name
  1.3824,-0.4336,0.0512,   !- Coefficients (List)
  0,                       !- Minimum Value of x
  1;                       !- Maximum Value of x

Curve:Biquadratic,
  <%= unitary_name %> DefrostEIR,         !- Name
  0.297145,0.0430933,-0.000748766,0.00597727,0.000482112,-0.000956448,   !- Coefficients (List)
  12.77778,                !- Minimum Value of x
  23.88889,                !- Maximum Value of x
  21.11111,                !- Minimum Value of y
  46.11111;                !- Maximum Value of y

!x!<% else %>
! Following performance curves taken from single-speed ASHP system in BeOpt
Curve:Biquadratic,
  <%= unitary_name %> HP_Heat-Cap-fT,   !- Name
  0.878143655,-0.0029148552,-0.000033372,0.0223866612,0.000163944,-0.00002187,   !- Coefficients (list)
  -100,             !- Minimum Value of x
  100,              !- Maximum Value of x
  -100,             !- Minimum Value of y
  100;              !- Maximum Value of y

Curve:Biquadratic,
  <%= unitary_name %> HP_Heat-EIR-fT,   !- Name
  0.716518071,0.0102759012,0.00046073448,-0.0064803654,0.000456354,-0.00069764004,   !- Coefficients (List)
  -100,             !- Minimum Value of x
  100,              !- Maximum Value of x
  -100,             !- Minimum Value of y
  100;              !- Maximum Value of y

Curve:Quadratic,
  <%= unitary_name %> HP_Heat-PLF-fPLR,   !- Name
  <%= 1 - heat_coil_cd %>,<%= heat_coil_cd %>,0,     !- Coefficients (List)
  0,                  !- Minimum Value of x
  1,                  !- Maximum Value of x
  0.7,                !- Minimum Value of y
  1;                  !- Maximum Value of y

Curve:Quadratic,
  <%= unitary_name %> HP_Heat-Cap-fFF,                        !- Name
  0.694045465,0.474207981,-0.168253446,   !- Coefficients (List)
  0,                                      !- Minimum Value of x
  2,                                      !- Maximum Value of x
  0,                                      !- Minimum Value of y
  2;                                      !- Maximum Value of y

Curve:Quadratic,
  <%= unitary_name %> HP_Heat-EIR-fFF,                        !- Name
  2.185418751,-1.942827919,0.757409168,   !- Coefficients (List)
  0,                                      !- Minimum Value of x
  2,                                      !- Maximum Value of x
  0,                                      !- Minimum Value of y
  2;                                      !- Maximum Value of y

Curve:Biquadratic,
  <%= unitary_name %> DefrostEIR,         !- Name
  0.1528,0,0,0,0,0,   !- Coefficients (List)
  -100,               !- Minimum Value of x
  100,                !- Maximum Value of x
  -100,               !- Minimum Value of y
  100;                !- Maximum Value of y
!x!<% end # if dx_type == "PNNL"%>
!x!<% elsif (heat_coil_type == "DX-AIR" and dx_comp_speed_num > 1) %>

!x!<% if (fan_config == "DRAW-THROUGH" and cool_coil_type == "NONE")
!x!  iv_air_inlet_node_nm = unitary_name + " Unitary Inlet Node"
!x!elsif (fan_config == "BLOW-THROUGH" and cool_coil_type == "NONE")
!x!  iv_air_inlet_node_nm = unitary_name + " Supply Fan Outlet Node"
!x!else
!x!  iv_air_inlet_node_nm = unitary_name + " Cooling Coil Outlet Node"
!x!end %>
!x!
!x!<% if (fan_config == "BLOW-THROUGH" and aux_heat_coil_type == "NONE")
!x!  iv_air_outlet_node_nm = unitary_name + " Unitary Outlet Node"
!x!else
!x!  iv_air_outlet_node_nm = unitary_name + " Heating Coil Outlet Node"
!x!end %>
!x!
!x!<% if (dx_comp_speed_num == 2)
!x!  iv_rated_heat_cap = heat_coil_cap
!x!else
!x!  iv_rated_heat_cap = "Autosize"
!x!end %>
!x!
!x!<% if (dx_comp_speed_num < 3)
!x!  iv_waste_heat_func_temp_curve_nm = unitary_name + " HP_Heat-Waste"
!x!  iv_total_heat_cap3 = ""
!x!  iv_rated_cop3 = ""
!x!  iv_rated_airflow3 = ""
!x!  iv_tot_heat_cap_temp_curve3_nm = ""
!x!  iv_tot_heat_cap_flow_curve3_nm = ""
!x!  iv_eir_temp_curve3_nm = ""
!x!  iv_eir_flow_curve3_nm = ""
!x!  iv_plf_curve3_nm = ""
!x!  iv_waste_ht_frac_power3 = ""
!x!
!x!else
!x!  iv_waste_heat_func_temp_curve2_nm = unitary_name + " HP_Heat-Waste"
!x!  iv_total_heat_cap3 = "Autosize"
!x!  iv_rated_cop3 = heat_coil_cop_3
!x!  iv_rated_airflow3 = "Autosize"
!x!  iv_tot_heat_cap_temp_curve3_nm = unitary_name + " HP_Heat-Cap-fT3"
!x!  iv_tot_heat_cap_flow_curve3_nm = unitary_name + " HP_Heat-Cap-fFF3"
!x!  iv_eir_temp_curve3_nm = unitary_name + " HP_Heat-EIR-fT3"
!x!  iv_eir_flow_curve3_nm = unitary_name + " HP_Heat-EIR-fFF3"
!x!  iv_plf_curve3_nm = unitary_name + " HP_Heat-PLF-fPLR3"
!x!  iv_waste_ht_frac_power3 = 0.2
!x! 
!x! if (dx_comp_speed_num < 4)
!x!  iv_waste_heat_func_temp_curve2_nm = unitary_name + " HP_Heat-Waste"
!x!  iv_total_heat_cap4 = ""
!x!  iv_rated_cop4 = ""
!x!  iv_rated_airflow4 = ""
!x!  iv_tot_heat_cap_temp_curve4_nm = ""
!x!  iv_tot_heat_cap_flow_curve4_nm = ""
!x!  iv_eir_temp_curve4_nm = ""
!x!  iv_eir_flow_curve4_nm = ""
!x!  iv_plf_curve4_nm = ""
!x!  iv_waste_ht_frac_power4 = ""
!x!  iv_waste_heat_func_temp_curve_nm = ""
!x!
!x! else
!x!  iv_waste_heat_func_temp_curve3_nm = unitary_name + " HP_Heat-Waste"
!x!  iv_total_heat_cap4 = heat_coil_cap
!x!  iv_rated_cop4 = heat_coil_cop_4
!x!  iv_rated_airflow4 = "Autosize"
!x!  iv_tot_heat_cap_temp_curve4_nm = unitary_name + " HP_Heat-Cap-fT4"
!x!  iv_tot_heat_cap_flow_curve4_nm = unitary_name + " HP_Heat-Cap-fFF4"
!x!  iv_eir_temp_curve4_nm = unitary_name + " HP_Heat-EIR-fT4"
!x!  iv_eir_flow_curve4_nm = unitary_name + " HP_Heat-EIR-fFF4"
!x!  iv_plf_curve4_nm = unitary_name + " HP_Heat-PLF-fPLR4"
!x!  iv_waste_ht_frac_power4 = 0.2
!x!  iv_waste_heat_func_temp_curve4_nm = unitary_name + " HP_Heat-Waste"
!x!
!x! end
!x!end %>

Coil:Heating:DX:MultiSpeed,
  <%= unitary_name %> Heating Coil,  !- Name
  ,                        !- Availability Schedule Name
  <%= iv_air_inlet_node_nm %>,  !- Air Inlet Node Name
  <%= iv_air_outlet_node_nm %>,  !- Air Outlet Node Name
  <%= hp_min_temp %>,      !- Minimum Outdoor Dry-Bulb Temperature for Compressor Operation {C}
  ,                        !- Outdoor Dry-Bulb Temperature to Turn On Compressor {C}
  <%= dx_crankcase_cap %>,  !- Crankcase Heater Capacity {W}
  <%= dx_crankcase_max_temp %>,  !- Maximum Outdoor Dry-Bulb Temperature for Crankcase Heater Operation {C}
  <%= unitary_name %> DefrostEIR,  !- Defrost Energy Input Ratio Function of Temperature Curve Name
  <%= hp_defrost_temp %>,  !- Maximum Outdoor Dry-Bulb Temperature for Defrost Operation {C}
  ReverseCycle,            !- Defrost Strategy
  Timed,                   !- Defrost Control
  0.0,                     !- Defrost Time Period Fraction
  ,                        !- Resistive Defrost Heater Capacity {W}
  No,                      !- Apply Part Load Fraction to Speeds Greater than 1
  Electricity,             !- Fuel Type
  ,                        !- Region number for Calculating HSPF
  <%= dx_comp_speed_num %>,  !- Number of Speeds
  Autosize,    !- Rated Total Heating Capacity {W}
  <%= heat_coil_cop_1 %>,  !- Rated COP
  <%= fan_flow %>,         !- Rated Air Flow Rate {m^3/s}
  ,                        !- 2017 Rated Evaporator Fan Power Per Volume Flow Rate {W/(m/s)}
  ,                        !- 2023 Rated Evaporator Fan Power Per Volume Flow Rate {W/(m/s)}
  <%= unitary_name %> HP_Heat-Cap-fT1,  !- Total Heating Capacity Function of Temperature Curve Name
  <%= unitary_name %> HP_Heat-Cap-fFF1,  !- Total Heating Capacity Function of Flow Fraction Curve Name
  <%= unitary_name %> HP_Heat-EIR-fT1,  !- Energy Input Ratio Function of Temperature Curve Name
  <%= unitary_name %> HP_Heat-EIR-fFF1,  !- Energy Input Ratio Function of Flow Fraction Curve Name
  <%= unitary_name %> HP_Heat-PLF-fPLR1,  !- Part Load Fraction Correlation Curve Name
  0.2,                     !- Rated Waste Heat Fraction of Power Input
  <%= unitary_name %> HP_Heat-Waste,  !- Waste Heat Function of Temperature Curve Name
  <%= iv_rated_heat_cap %>,   !- Rated Total Heating Capacity {W}
  <%= heat_coil_cop_2 %>,  !- Rated COP
  Autosize,                !- Rated Air Flow Rate {m^3/s}
  ,                        !- 2017 Rated Evaporator Fan Power Per Volume Flow Rate {W/(m/s)}
  ,                        !- 2023 Rated Evaporator Fan Power Per Volume Flow Rate {W/(m/s)}
  <%= unitary_name %> HP_Heat-Cap-fT2,  !- Total Heating Capacity Function of Temperature Curve Name
  <%= unitary_name %> HP_Heat-Cap-fFF2,  !- Total Heating Capacity Function of Flow Fraction Curve Name
  <%= unitary_name %> HP_Heat-EIR-fT2,  !- Energy Input Ratio Function of Temperature Curve Name
  <%= unitary_name %> HP_Heat-EIR-fFF2,  !- Energy Input Ratio Function of Flow Fraction Curve Name
  <%= unitary_name %> HP_Heat-PLF-fPLR2,  !- Part Load Fraction Correlation Curve Name
  0.2,                     !- Rated Waste Heat Fraction of Power Input
  <%= iv_waste_heat_func_temp_curve2_nm %>,  !- Waste Heat Function of Temperature Curve Name
  <%= iv_total_heat_cap3 %>,                !- Rated Total Heating Capacity {W}
  <%= iv_rated_cop3 %>,  !- Rated COP
  <%= iv_rated_airflow3 %>,                !- Rated Air Flow Rate {m^3/s}
  ,                        !- 2017 Rated Evaporator Fan Power Per Volume Flow Rate {W/(m/s)}
  ,                        !- 2023 Rated Evaporator Fan Power Per Volume Flow Rate {W/(m/s)}
  <%= iv_tot_heat_cap_temp_curve3_nm %>,  !- Total Heating Capacity Function of Temperature Curve Name
  <%= iv_tot_heat_cap_flow_curve3_nm %>,  !- Total Heating Capacity Function of Flow Fraction Curve Name
  <%= iv_eir_temp_curve3_nm %>,  !- Energy Input Ratio Function of Temperature Curve Name
  <%= iv_eir_flow_curve3_nm %>,  !- Energy Input Ratio Function of Flow Fraction Curve Name
  <%= iv_plf_curve3_nm %>,  !- Part Load Fraction Correlation Curve Name
  <%= iv_waste_ht_frac_power3 %>,                     !- Rated Waste Heat Fraction of Power Input
  <%= iv_waste_heat_func_temp_curve3_nm %>,  !- Waste Heat Function of Temperature Curve Name
  <%= iv_total_heat_cap4 %>,                !- Rated Total Heating Capacity {W}
  <%= iv_rated_cop4 %>,  !- Rated COP
  <%= iv_rated_airflow4 %>,                !- Rated Air Flow Rate {m^3/s}
  ,                        !- 2017 Rated Evaporator Fan Power Per Volume Flow Rate {W/(m/s)}
  ,                        !- 2023 Rated Evaporator Fan Power Per Volume Flow Rate {W/(m/s)}
  <%= iv_tot_heat_cap_temp_curve4_nm %>,  !- Total Heating Capacity Function of Temperature Curve Name
  <%= iv_tot_heat_cap_flow_curve4_nm %>,  !- Total Heating Capacity Function of Flow Fraction Curve Name
  <%= iv_eir_temp_curve4_nm %>,  !- Energy Input Ratio Function of Temperature Curve Name
  <%= iv_eir_flow_curve4_nm %>,  !- Energy Input Ratio Function of Flow Fraction Curve Name
  <%= iv_plf_curve4_nm %>,  !- Part Load Fraction Correlation Curve Name
  <%= iv_waste_ht_frac_power4 %>,                     !- Rated Waste Heat Fraction of Power Input
  <%= iv_waste_heat_func_temp_curve4_nm %>;  !- Waste Heat Function of Temperature Curve Name


!x!<% if (dx_comp_speed_num == 2) %>
! Following performance curves taken from two-speed ASHP system in BeOpt

Curve:Biquadratic,
  <%= unitary_name %> HP_Heat-Cap-fT1,   !- Name
  0.84077409,-0.0014336586,-0.000150336,0.029628603,0.000161676,-0.00002349,   !- Coefficients (list)
  -100,             !- Minimum Value of x
  100,              !- Maximum Value of x
  -100,             !- Minimum Value of y
  100;              !- Maximum Value of y

Curve:Biquadratic,
  <%= unitary_name %> HP_Heat-EIR-fT1,   !- Name
  0.539472334,0.0165103146,0.00083874528,-0.0040323402,0.00142404156,-0.00211806252,   !- Coefficients (List)
  -100,             !- Minimum Value of x
  100,              !- Maximum Value of x
  -100,             !- Minimum Value of y
  100;              !- Maximum Value of y

Curve:Quadratic,
  <%= unitary_name %> HP_Heat-PLF-fPLR1,   !- Name
  <%= 1 - heat_coil_cd %>,<%= heat_coil_cd %>,0,     !- Coefficients (List)
  0,                  !- Minimum Value of x
  1,                  !- Maximum Value of x
  0.7,                !- Minimum Value of y
  1;                  !- Maximum Value of y

Curve:Quadratic,
  <%= unitary_name %> HP_Heat-Cap-fFF1,                        !- Name
  0.741466907,0.378645444,-0.119754733,   !- Coefficients (List)
  0,                                      !- Minimum Value of x
  2,                                      !- Maximum Value of x
  0,                                      !- Minimum Value of y
  2;                                      !- Maximum Value of y

Curve:Quadratic,
  <%= unitary_name %> HP_Heat-EIR-fFF1,                        !- Name
  2.153618211,-1.737190609,0.584269478,   !- Coefficients (List)
  0,                                      !- Minimum Value of x
  2,                                      !- Maximum Value of x
  0,                                      !- Minimum Value of y
  2;                                      !- Maximum Value of y

Curve:Biquadratic,
  <%= unitary_name %> HP_Heat-Cap-fT2,   !- Name
  0.831506971,0.0018392166,-0.000187596,0.0266002056,0.000191484,-0.000065772,   !- Coefficients (list)
  -100,              !- Minimum Value of x
  100,               !- Maximum Value of x
  -100,              !- Minimum Value of y
  100;               !- Maximum Value of y

Curve:Biquadratic,
  <%= unitary_name %> HP_Heat-EIR-fT2,   !- Name
  0.787746797,-0.0006523146,0.00078866784,-0.0023209056,0.00074760408,-0.00109173096,   !- Coefficients (List)
  -100,              !- Minimum Value of x
  100,               !- Maximum Value of x
  -100,              !- Minimum Value of y
  100;               !- Maximum Value of y

Curve:Quadratic,
  <%= unitary_name %> HP_Heat-PLF-fPLR2,   !- Name
  <%= 1 - heat_coil_cd %>,<%= heat_coil_cd %>,0,     !- Coefficients (List)
  0,                   !- Minimum Value of x
  1,                   !- Maximum Value of x
  0.7,                 !- Minimum Value of y
  1;                   !- Maximum Value of y

Curve:Quadratic,
  <%= unitary_name %> HP_Heat-Cap-fFF2,                     !- Name
  0.76634609,0.32840943,-0.094701495,   !- Coefficients (List)
  0,                                    !- Minimum Value of x
  2,                                    !- Maximum Value of x
  0,                                    !- Minimum Value of y
  2;                                    !- Maximum Value of y

Curve:Quadratic,
  <%= unitary_name %> HP_Heat-EIR-fFF2,                      !- Name
  2.001041353,-1.58869128,0.587593517,   !- Coefficients (List)
  0,                                     !- Minimum Value of x
  2,                                     !- Maximum Value of x
  0,                                     !- Minimum Value of y
  2;                                     !- Maximum Value of y

Curve:Biquadratic,
  <%= unitary_name %> DefrostEIR,         !- Name
  0.1528,0,0,0,0,0,   !- Coefficients (List)
  -100,               !- Minimum Value of x
  100,                !- Maximum Value of x
  -100,               !- Minimum Value of y
  100;                !- Maximum Value of y

!x!<% elsif (dx_comp_speed_num > 2) %>
!x!<% if (dx_type == "PACKAGED" or dx_type == "TERMINAL") %>
! Following performance curves taken from four-speed ASHP system in BeOpt

Curve:Biquadratic,
  <%= unitary_name %> HP_Heat-Cap-fT1,   !- Name
  0.8933210315759998,-0.00973374264,0.000063643968,0.0391130520048,-0.00000250816824,-0.000272588652,   !- Coefficients (list)
  -100,              !- Minimum Value of x
  100,               !- Maximum Value of x
  -100,              !- Minimum Value of y
  100;               !- Maximum Value of y

Curve:Biquadratic,
  <%= unitary_name %> HP_Heat-EIR-fT1,   !- Name
  0.4666484870000001,0.020263329,0.00126839196,-0.0170161326,0.00317499588,-0.00349609608,   !- Coefficients (List)
  -100,              !- Minimum Value of x
  100,               !- Maximum Value of x
  -100,              !- Minimum Value of y
  100;               !- Maximum Value of y

Curve:Quadratic,
  <%= unitary_name %> HP_Heat-PLF-fPLR1,   !- Name
  <%= 1 - heat_coil_cd %>,<%= heat_coil_cd %>,0,     !- Coefficients (List)
  0,                   !- Minimum Value of x
  1,                   !- Maximum Value of x
  0.7,                 !- Minimum Value of y
  1;                   !- Maximum Value of y

Curve:Quadratic,
  <%= unitary_name %> HP_Heat-Cap-fFF1,   !- Name
  1,0,0,              !- Coefficients (List)
  0,                  !- Minimum Value of x
  2,                  !- Maximum Value of x
  0,                  !- Minimum Value of y
  2;                  !- Maximum Value of y

Curve:Quadratic,
  <%= unitary_name %> HP_Heat-EIR-fFF1,   !- Name
  1,0,0,              !- Coefficients (List)
  0,                  !- Minimum Value of x
  2,                  !- Maximum Value of x
  0,                  !- Minimum Value of y
  2;                  !- Maximum Value of y

Curve:Biquadratic,
  <%= unitary_name %> HP_Heat-Cap-fT2,   !- Name
  0.9237345336,-0.00597077568,0,0.02781672876,0.000065916828,-0.000189254232,   !- Coefficients (list)
  -100,              !- Minimum Value of x
  100,               !- Maximum Value of x
  -100,              !- Minimum Value of y
  100;               !- Maximum Value of y

Curve:Biquadratic,
  <%= unitary_name %> HP_Heat-EIR-fT2,   !- Name
  0.450656859,0.0292902642,0.00039314484,-0.0097895178,0.00053936928,-0.0011808828,   !- Coefficients (List)
  -100,              !- Minimum Value of x
  100,               !- Maximum Value of x
  -100,              !- Minimum Value of y
  100;               !- Maximum Value of y

Curve:Quadratic,
  <%= unitary_name %> HP_Heat-PLF-fPLR2,   !- Name
  <%= 1 - heat_coil_cd %>,<%= heat_coil_cd %>,0,     !- Coefficients (List)
  0,                   !- Minimum Value of x
  1,                   !- Maximum Value of x
  0.7,                 !- Minimum Value of y
  1;                   !- Maximum Value of y

Curve:Quadratic,
  <%= unitary_name %> HP_Heat-Cap-fFF2,   !- Name
  1,0,0,              !- Coefficients (List)
  0,                  !- Minimum Value of x
  2,                  !- Maximum Value of x
  0,                  !- Minimum Value of y
  2;                  !- Maximum Value of y

Curve:Quadratic,
  <%= unitary_name %> HP_Heat-EIR-fFF2,   !- Name
  1,0,0,              !- Coefficients (List)
  0,                  !- Minimum Value of x
  2,                  !- Maximum Value of x
  0,                  !- Minimum Value of y
  2;                  !- Maximum Value of y

Curve:Biquadratic,
  <%= unitary_name %> HP_Heat-Cap-fT3,   !- Name
  0.9620542196000001,-0.00949277772,0.000109212948,0.0247078314,0.000034225092,-0.000125697744,   !- Coefficients (list)
  -100,              !- Minimum Value of x
  100,               !- Maximum Value of x
  -100,              !- Minimum Value of y
  100;               !- Maximum Value of y

Curve:Biquadratic,
  <%= unitary_name %> HP_Heat-EIR-fT3,   !- Name
  0.5725180114,0.02289624912,0.000266018904,-0.0106675434,0.00049092156,-0.00068136876,   !- Coefficients (List)
  -100,              !- Minimum Value of x
  100,               !- Maximum Value of x
  -100,              !- Minimum Value of y
  100;               !- Maximum Value of y

Curve:Quadratic,
  <%= unitary_name %> HP_Heat-PLF-fPLR3,   !- Name
  <%= 1 - heat_coil_cd %>,<%= heat_coil_cd %>,0,     !- Coefficients (List)
  0,                   !- Minimum Value of x
  1,                   !- Maximum Value of x
  0.7,                 !- Minimum Value of y
  1;                   !- Maximum Value of y

Curve:Quadratic,
  <%= unitary_name %> HP_Heat-Cap-fFF3,   !- Name
  1,0,0,              !- Coefficients (List)
  0,                  !- Minimum Value of x
  2,                  !- Maximum Value of x
  0,                  !- Minimum Value of y
  2;                  !- Maximum Value of y

Curve:Quadratic,
  <%= unitary_name %> HP_Heat-EIR-fFF3,   !- Name
  1,0,0,              !- Coefficients (List)
  0,                  !- Minimum Value of x
  2,                  !- Maximum Value of x
  0,                  !- Minimum Value of y
  2;                  !- Maximum Value of y

Curve:Biquadratic,
  <%= unitary_name %> HP_Heat-Cap-fT4,   !- Name
  0.93607915412,-0.005481563544,-0.0000085897908,0.02491053192,0.000053087076,-0.000155750364,   !- Coefficients (list)
  -100,              !- Minimum Value of x
  100,               !- Maximum Value of x
  -100,              !- Minimum Value of y
  100;               !- Maximum Value of y

Curve:Biquadratic,
  <%= unitary_name %> HP_Heat-EIR-fT4,   !- Name
  0.668195855,0.0146719548,0.00044596332,-0.0114392286,0.00049710348,-0.00069095592,   !- Coefficients (List)
  -100,              !- Minimum Value of x
  100,               !- Maximum Value of x
  -100,              !- Minimum Value of y
  100;               !- Maximum Value of y

Curve:Quadratic,
  <%= unitary_name %> HP_Heat-PLF-fPLR4,   !- Name
  <%= 1 - heat_coil_cd %>,<%= heat_coil_cd %>,0,     !- Coefficients (List)
  0,                   !- Minimum Value of x
  1,                   !- Maximum Value of x
  0.7,                 !- Minimum Value of y
  1;                   !- Maximum Value of y

Curve:Quadratic,
  <%= unitary_name %> HP_Heat-Cap-fFF4,   !- Name
  1,0,0,              !- Coefficients (List)
  0,                  !- Minimum Value of x
  2,                  !- Maximum Value of x
  0,                  !- Minimum Value of y
  2;                  !- Maximum Value of y

Curve:Quadratic,
  <%= unitary_name %> HP_Heat-EIR-fFF4,   !- Name
  1,0,0,              !- Coefficients (List)
  0,                  !- Minimum Value of x
  2,                  !- Maximum Value of x
  0,                  !- Minimum Value of y
  2;                  !- Maximum Value of y

!x!<% elsif (dx_type == "SPLIT") %>
! Following performance curves taken from four-speed SPLIT Heat Pump system in BeOpt (based on Fujitsu 12RLS SPLIT unit testing in NREL report at http://www.nrel.gov/docs/fy11osti/52175.pdf)

Curve:Biquadratic,
  <%= unitary_name %> HP_Heat-Cap-fT1,   !- Name
  1.1527124655908572,-0.010386676170938,0,0.011263752411403,-0.000392549621117,0,   !- Coefficients (list)
  -100,              !- Minimum Value of x
  100,               !- Maximum Value of x
  -100,              !- Minimum Value of y
  100;               !- Maximum Value of y

Curve:Biquadratic,
  <%= unitary_name %> HP_Heat-EIR-fT1,   !- Name
  0.966475472847719,0.005914950101249,0.000191201688297,-0.012965668198361,0.000042253229429,-0.000524002558712,   !- Coefficients (list)
  -100,              !- Minimum Value of x
  100,               !- Maximum Value of x
  -100,              !- Minimum Value of y
  100;               !- Maximum Value of y

Curve:Quadratic,
  <%= unitary_name %> HP_Heat-PLF-fPLR1,   !- Name
  <%= 1 - heat_coil_cd %>,<%= heat_coil_cd %>,0,     !- Coefficients (List)
  0,                   !- Minimum Value of x
  1,                   !- Maximum Value of x
  0.7,                 !- Minimum Value of y
  1;                   !- Maximum Value of y

Curve:Quadratic,
  <%= unitary_name %> HP_Heat-Cap-fFF1,   !- Name
  1,0,0,              !- Coefficients (List)
  0,                  !- Minimum Value of x
  2,                  !- Maximum Value of x
  0,                  !- Minimum Value of y
  2;                  !- Maximum Value of y

Curve:Quadratic,
  <%= unitary_name %> HP_Heat-EIR-fFF1,   !- Name
  1,0,0,              !- Coefficients (List)
  0,                  !- Minimum Value of x
  2,                  !- Maximum Value of x
  0,                  !- Minimum Value of y
  2;                  !- Maximum Value of y

Curve:Biquadratic,
  <%= unitary_name %> HP_Heat-Cap-fT2,   !- Name
  1.1527124655908572,-0.010386676170938,0,0.011263752411403,-0.000392549621117,0,   !- Coefficients (list)
  -100,              !- Minimum Value of x
  100,               !- Maximum Value of x
  -100,              !- Minimum Value of y
  100;               !- Maximum Value of y

Curve:Biquadratic,
  <%= unitary_name %> HP_Heat-EIR-fT2,   !- Name
  0.966475472847719,0.005914950101249,0.000191201688297,-0.012965668198361,0.000042253229429,-0.000524002558712,   !- Coefficients (list)
  -100,              !- Minimum Value of x
  100,               !- Maximum Value of x
  -100,              !- Minimum Value of y
  100;               !- Maximum Value of y

Curve:Quadratic,
  <%= unitary_name %> HP_Heat-PLF-fPLR2,   !- Name
  <%= 1 - heat_coil_cd %>,<%= heat_coil_cd %>,0,     !- Coefficients (List)
  0,                   !- Minimum Value of x
  1,                   !- Maximum Value of x
  0.7,                 !- Minimum Value of y
  1;                   !- Maximum Value of y

Curve:Quadratic,
  <%= unitary_name %> HP_Heat-Cap-fFF2,   !- Name
  1,0,0,              !- Coefficients (List)
  0,                  !- Minimum Value of x
  2,                  !- Maximum Value of x
  0,                  !- Minimum Value of y
  2;                  !- Maximum Value of y

Curve:Quadratic,
  <%= unitary_name %> HP_Heat-EIR-fFF2,   !- Name
  1,0,0,              !- Coefficients (List)
  0,                  !- Minimum Value of x
  2,                  !- Maximum Value of x
  0,                  !- Minimum Value of y
  2;                  !- Maximum Value of y

Curve:Biquadratic,
  <%= unitary_name %> HP_Heat-Cap-fT3,   !- Name
  1.1527124655908572,-0.010386676170938,0,0.011263752411403,-0.000392549621117,0,   !- Coefficients (list)
  -100,              !- Minimum Value of x
  100,               !- Maximum Value of x
  -100,              !- Minimum Value of y
  100;               !- Maximum Value of y

Curve:Biquadratic,
  <%= unitary_name %> HP_Heat-EIR-fT3,   !- Name
  0.966475472847719,0.005914950101249,0.000191201688297,-0.012965668198361,0.000042253229429,-0.000524002558712,   !- Coefficients (list)
  -100,              !- Minimum Value of x
  100,               !- Maximum Value of x
  -100,              !- Minimum Value of y
  100;               !- Maximum Value of y

Curve:Quadratic,
  <%= unitary_name %> HP_Heat-PLF-fPLR3,   !- Name
  <%= 1 - heat_coil_cd %>,<%= heat_coil_cd %>,0,     !- Coefficients (List)
  0,                   !- Minimum Value of x
  1,                   !- Maximum Value of x
  0.7,                 !- Minimum Value of y
  1;                   !- Maximum Value of y

Curve:Quadratic,
  <%= unitary_name %> HP_Heat-Cap-fFF3,   !- Name
  1,0,0,              !- Coefficients (List)
  0,                  !- Minimum Value of x
  2,                  !- Maximum Value of x
  0,                  !- Minimum Value of y
  2;                  !- Maximum Value of y

Curve:Quadratic,
  <%= unitary_name %> HP_Heat-EIR-fFF3,   !- Name
  1,0,0,              !- Coefficients (List)
  0,                  !- Minimum Value of x
  2,                  !- Maximum Value of x
  0,                  !- Minimum Value of y
  2;                  !- Maximum Value of y

Curve:Biquadratic,
  <%= unitary_name %> HP_Heat-Cap-fT4,   !- Name
  1.1527124655908572,-0.010386676170938,0,0.011263752411403,-0.000392549621117,0,   !- Coefficients (list)
  -100,              !- Minimum Value of x
  100,               !- Maximum Value of x
  -100,              !- Minimum Value of y
  100;               !- Maximum Value of y

Curve:Biquadratic,
  <%= unitary_name %> HP_Heat-EIR-fT4,   !- Name
  0.966475472847719,0.005914950101249,0.000191201688297,-0.012965668198361,0.000042253229429,-0.000524002558712,   !- Coefficients (list)
  -100,              !- Minimum Value of x
  100,               !- Maximum Value of x
  -100,              !- Minimum Value of y
  100;               !- Maximum Value of y

Curve:Quadratic,
  <%= unitary_name %> HP_Heat-PLF-fPLR4,   !- Name
  <%= 1 - heat_coil_cd %>,<%= heat_coil_cd %>,0,     !- Coefficients (List)
  0,                   !- Minimum Value of x
  1,                   !- Maximum Value of x
  0.7,                 !- Minimum Value of y
  1;                   !- Maximum Value of y

Curve:Quadratic,
  <%= unitary_name %> HP_Heat-Cap-fFF4,   !- Name
  1,0,0,              !- Coefficients (List)
  0,                  !- Minimum Value of x
  2,                  !- Maximum Value of x
  0,                  !- Minimum Value of y
  2;                  !- Maximum Value of y

Curve:Quadratic,
  <%= unitary_name %> HP_Heat-EIR-fFF4,   !- Name
  1,0,0,              !- Coefficients (List)
  0,                  !- Minimum Value of x
  2,                  !- Maximum Value of x
  0,                  !- Minimum Value of y
  2;                  !- Maximum Value of y
!x!<% end %>

Curve:Biquadratic,
  <%= unitary_name %> DefrostEIR,         !- Name
  0.1528,0,0,0,0,0,   !- Coefficients (List)
  -100,               !- Minimum Value of x
  100,                !- Maximum Value of x
  -100,               !- Minimum Value of y
  100;                !- Maximum Value of y

Curve:Biquadratic,
  <%= unitary_name %> HP_Heat-Waste,         !- Name
  1,0,0,0,0,0,   !- Coefficients (List)
  -100,               !- Minimum Value of x
  100,                !- Maximum Value of x
  -100,               !- Minimum Value of y
  100;                !- Maximum Value of y
!x!<% end %>

!x!<% elsif (heat_coil_type == "DX-WATER") %>
!x!
!x!<% if (fan_config == "DRAW-THROUGH" and cool_coil_type == "NONE")
!x!  iv_air_inlet_node_nm = unitary_name + " Unitary Inlet Node"
!x!elsif (fan_config == "BLOW-THROUGH" and cool_coil_type == "NONE")
!x!  iv_air_inlet_node_nm = unitary_name + " Supply Fan Outlet Node"
!x!else
!x!  iv_air_inlet_node_nm = unitary_name + " Cooling Coil Outlet Node"
!x!end %>
!x!
!x!<% if (fan_config == "BLOW-THROUGH" and aux_heat_coil_type == "NONE")
!x!  iv_air_outlet_node_nm = unitary_name + " Unitary Outlet Node"
!x!else
!x!  iv_air_outlet_node_nm = unitary_name + " Heating Coil Outlet Node"
!x!end %>

!x!<% if (dx_comp_speed_num == 1) %>
Coil:Heating:WaterToAirHeatPump:EquationFit,
  <%= unitary_name %> Heating Coil,  !- Name
  <%= unitary_name %> Water Source Intermediate Node,  !- Water Inlet Node Name
  <%= unitary_name %> Water Source Outlet Node,  !- Water Outlet Node Name
  <%= iv_air_inlet_node_nm %>,  !- Air Inlet Node Name
  <%= iv_air_outlet_node_nm %>,  !- Air Outlet Node Name
  Autosize,                !- Rated Air Flow Rate {m3/s}
  Autosize,                !- Rated Water Flow Rate {m3/s}
  Autosize,                !- Gross Rated Heating Capacity {W}
  <%= heat_coil_cop %>,    !- Gross Rated Heating COP {W/W}
  20,                      !- Rated Entering Water Temperature {C}
  20,                      !- Rated Entering Air Dry-Bulb Temperature {C}
  1.0,                     !- Ratio of Rated Heating Capacity to Rated Cooling Capacity
  <%= unitary_name %> WSHP Heat Cap,  !- Heating Capacity Curve Name
  <%= unitary_name %> WSHP Heat Power;  !- Heating Power Consumption Curve Name

Curve:QuadLinear,
  <%= unitary_name %> WSHP Heat Cap,  !- Name
  0.237847462869254,       !- Coefficient1 Constant
  -3.35823796081626,       !- Coefficient2 w
  3.80640467406376,        !- Coefficient3 x
  0.179200417311554,       !- Coefficient4 y
  0.12860719846082,        !- Coefficient5 z
  -100,                    !- Minimum Value of w
  100,                     !- Maximum Value of w
  -100,                    !- Minimum Value of x
  100,                     !- Maximum Value of x
  -100,                    !- Minimum Value of y
  100,                     !- Maximum Value of y
  -100,                    !- Minimum Value of z
  100;                     !- Maximum Value of z

Curve:QuadLinear,
  <%= unitary_name %> WSHP Heat Power,  !- Name
  -3.79175529243238,       !- Coefficient1 Constant
  3.38799239505527,        !- Coefficient2 w
  1.5022612076303,         !- Coefficient3 x
  -0.177653510577989,      !- Coefficient4 y
  -0.103079864171839,      !- Coefficient5 z
  -100,                    !- Minimum Value of w
  100,                     !- Maximum Value of w
  -100,                    !- Minimum Value of x
  100,                     !- Maximum Value of x
  -100,                    !- Minimum Value of y
  100,                     !- Maximum Value of y
  -100,                    !- Minimum Value of z
  100;                     !- Maximum Value of z

!x!<% elsif (dx_comp_speed_num > 1) %>
!x!
!x!<% if (fan_config == "DRAW-THROUGH" and cool_coil_type == "NONE")
!x!  iv_indoor_air_Inlet_node_nm = unitary_name + " Unitary Inlet Node"
!x!elsif (fan_config == "BLOW-THROUGH" and cool_coil_type == "NONE")
!x!  iv_indoor_air_Inlet_node_nm = unitary_name + " Supply Fan Outlet Node"
!x!else
!x!  iv_indoor_air_Inlet_node_nm = unitary_name + " Cooling Coil Outlet Node"
!x!end %>
!x!
!x!<% if (fan_config == "BLOW-THROUGH" and aux_heat_coil_type == "NONE")
!x!  iv_indoor_air_outlet_node_nm = unitary_name + " Unitary Outlet Node"
!x!else
!x!  iv_indoor_air_outlet_node_nm = unitary_name + " Heating Coil Outlet Node"
!x!end %>

Coil:Heating:WaterToAirHeatPump:VariableSpeedEquationFit,
  <%= unitary_name %> Heating Coil,  !- Name
  <%= unitary_name %> Water Source Intermediate Node,  !- Water-to-Refrigerant HX Water Inlet Node Name
  <%= unitary_name %> Water Source Outlet Node,  !- Water-to-Refrigerant HX Water Outlet Node Name
  <%= iv_indoor_air_Inlet_node_nm %>,  !- Indoor Air Air Inlet Node Name
  <%= iv_indoor_air_outlet_node_nm %>,  !- Indoor Air Air Outlet Node Name
  1,                       !- Number of Speeds {dimensionless}
  1,                       !- Nominal Speed Level {dimensionless}
  Autosize,                !- Rated Heating Capacity At Selected Nominal Speed Level {w}
  Autosize,                !- Rated Air Flow Rate At Selected Nominal Speed Level {m3/s}
  Autosize,                !- Rated Water Flow Rate At Selected Nominal Speed Level {m3/s}
  <%= unitary_name %> VS Energy Part Load Fraction,  !- Energy Part Load Fraction Curve Name
  1.0,                     !- Speed 1 Reference Unit Gross Rated Heating Capacity {w}
  <%= heat_coil_cop %>,    !- Speed 1 Reference Unit Gross Rated Heating COP {dimensionless}
  0.000053726168,          !- Speed 1 Reference Unit Rated Air Flow Rate {m3/s}
  0.00000005386608,        !- Speed 1 Reference Unit Rated Water Flow Rate {m3/s}
  <%= unitary_name %> Heating VS Temp1 Test,  !- Speed 1 Heating Capacity Function of Temperature Curve Name
  <%= unitary_name %> Heating VS AirFrac Test,  !- Speed 1 Total  Heating Capacity Function of Air Flow Fraction Curve Name
  <%= unitary_name %> Heating VS WaterFrac Test,  !- Speed 1 Heating Capacity Function of Water Flow Fraction Curve Name
  <%= unitary_name %> Heating EIR VS Temp1 Test,  !- Speed 1 Energy Input Ratio Function of Temperature Curve Name
  <%= unitary_name %> Heating EIR VS AirFrac Test,  !- Speed 1 Energy Input Ratio Function of Air Flow Fraction Curve Name
  <%= unitary_name %> Heating EIR VS WaterFrac Test,  !- Speed 1 Energy Input Ratio Function of Water Flow Fraction Curve Name
  0.1,                     !- Speed 1 Reference Unit Waste Heat Fraction of Input Power At Rated Conditions {dimensionless}
  <%= unitary_name %> Heating WasteHeat VS Temp1 Test;  !- Speed 1 Waste Heat Function of Temperature Curve Name

Curve:Biquadratic,
  <%= unitary_name %> Heating VS Temp1 Test,  !- Name
  0.617474,                !- Coefficient1 Constant
  -0.00245669,             !- Coefficient2 x
  -1.86550E-05,            !- Coefficient3 x**2
  0.0254921,               !- Coefficient4 y
  -1.00773E-04,            !- Coefficient5 y**2
  -1.09447E-04,            !- Coefficient6 x*y
  7.0,                     !- Minimum Value of x
  27.0,                    !- Maximum Value of x
  10.0,                    !- Minimum Value of y
  30.0;                    !- Maximum Value of y

Curve:Quadratic,
  <%= unitary_name %> Heating VS AirFrac Test,  !- Name
  1.0,                     !- Coefficient1 Constant
  0.0,                     !- Coefficient2 x
  0.0,                     !- Coefficient3 x**2
  0.0,                     !- Minimum Value of x
  1.0;                     !- Maximum Value of x

Curve:Quadratic,
  <%= unitary_name %> Heating VS WaterFrac Test,  !- Name
  1.0,                     !- Coefficient1 Constant
  0.0,                     !- Coefficient2 x
  0.0,                     !- Coefficient3 x**2
  0.0,                     !- Minimum Value of x
  1.0;                     !- Maximum Value of x

Curve:Biquadratic,
  <%= unitary_name %> Heating EIR VS Temp1 Test,  !- Name
  0.993257,                !- Coefficient1 Constant
  0.0201512,               !- Coefficient2 x
  7.72375E-05,             !- Coefficient3 x**2
  -0.0317207,              !- Coefficient4 y
  0.000740649,             !- Coefficient5 y**2
  -3.03875E-04,            !- Coefficient6 x*y
  7.0,                     !- Minimum Value of x
  27.0,                    !- Maximum Value of x
  10.0,                    !- Minimum Value of y
  30.0;                    !- Maximum Value of y

Curve:Quadratic,
  <%= unitary_name %> Heating EIR VS AirFrac Test,  !- Name
  1.0,                     !- Coefficient1 Constant
  0.0,                     !- Coefficient2 x
  0.0,                     !- Coefficient3 x**2
  0.0,                     !- Minimum Value of x
  1.0;                     !- Maximum Value of x

Curve:Quadratic,
  <%= unitary_name %> Heating EIR VS WaterFrac Test,  !- Name
  1.0,                     !- Coefficient1 Constant
  0.0,                     !- Coefficient2 x
  0.0,                     !- Coefficient3 x**2
  0.0,                     !- Minimum Value of x
  1.0;                     !- Maximum Value of x

Curve:Biquadratic,
  <%= unitary_name %> Heating WasteHeat VS Temp1 Test,  !- Name
  1.0,                     !- Coefficient1 Constant
  0,                       !- Coefficient2 x
  0,                       !- Coefficient3 x**2
  0,                       !- Coefficient4 y
  0,                       !- Coefficient5 y**2
  0,                       !- Coefficient6 x*y
  7.0,                     !- Minimum Value of x
  27.0,                    !- Maximum Value of x
  10.0,                    !- Minimum Value of y
  30.0;                    !- Maximum Value of y
!x!  <% end # (dx_comp_speed_num > 1) %>
!x!<% elsif (heat_coil_type == "WATER") %>

!x!<% if (fan_config == "DRAW-THROUGH" and cool_coil_type == "NONE")
!x!  iv_air_inlet_node_nm = unitary_name + " Unitary Inlet Node"
!x!elsif (fan_config == "BLOW-THROUGH" and cool_coil_type == "NONE")
!x!  iv_air_inlet_node_nm = unitary_name + " Supply Fan Outlet Node"
!x!else
!x!  iv_air_inlet_node_nm = unitary_name + " Cooling Coil Outlet Node"
!x!end %>
!x!
!x!<% if (fan_config == "BLOW-THROUGH" and aux_heat_coil_type == "NONE")
!x!  iv_air_outlet_node_nm = unitary_name + " Unitary Outlet Node"
!x!else
!x!  iv_air_outlet_node_nm = unitary_name + " Heating Coil Outlet Node"
!x!end %>

Coil:Heating:Water,
  <%= unitary_name %> Heating Coil,  !- Name
  ,                        !- Availability Schedule Name
  Autosize,                !- U-Factor Times Area Value {W/K}
  Autosize,                !- Maximum Water Flow Rate {m3/s}
  <%= unitary_name %> HeatCDemand Inlet Node,  !- Water Inlet Node Name
  <%= unitary_name %> HeatCDemand Outlet Node,  !- Water Outlet Node Name
  <%= iv_air_inlet_node_nm %>,  !- Air Inlet Node Name
  <%= iv_air_outlet_node_nm %>,  !- Air Outlet Node Name
  UFactorTimesAreaAndDesignWaterFlowRate,  !- Performance Input Method
  <%= heat_coil_cap %>,    !- Rated Capacity {W}
  ,                        !- Rated Inlet Water Temperature {C}
  ,                        !- Rated Inlet Air Temperature {C}
  ,                        !- Rated Outlet Water Temperature {C}
  ;                        !- Rated Outlet Air Temperature {C}


Branch,
  <%= unitary_name %> HW Branch,  !- Name
  ,                        !- Pressure Drop Curve Name
  Coil:Heating:Water,      !- Component 1 Object Type
  <%= unitary_name %> Heating Coil,  !- Component 1 Name
  <%= unitary_name %> HeatCDemand Inlet Node,  !- Component 1 Inlet Node Name
  <%= unitary_name %> HeatCDemand Outlet Node;  !- Component 1 Outlet Node Name


!x!<% elsif (heat_coil_type == "STEAM") %>
!x!<% # Added for steam boiler variant. Behzad Rizi 2024-01-08 %>

!x!<% if (fan_config == "DRAW-THROUGH" and cool_coil_type == "NONE")
!x!  iv_air_inlet_node_nm = unitary_name + " Unitary Inlet Node"
!x!elsif (fan_config == "BLOW-THROUGH" and cool_coil_type == "NONE")
!x!  iv_air_inlet_node_nm = unitary_name + " Supply Fan Outlet Node"
!x!else
!x!  iv_air_inlet_node_nm = unitary_name + " Cooling Coil Outlet Node"
!x!end %>
!x!
!x!<% if (fan_config == "BLOW-THROUGH" and aux_heat_coil_type == "NONE")
!x!  iv_air_outlet_node_nm = unitary_name + " Unitary Outlet Node"
!x!else
!x!  iv_air_outlet_node_nm = unitary_name + " Heating Coil Outlet Node"
!x!end %>

Coil:Heating:Steam,
  <%= unitary_name %> Heating Coil,  !- Name
  ,                        !- Availability Schedule Name
  Autosize,                !- Maximum Steam Flow Rate {m3/s}
  1,                       !- Degree of SubCooling
  10,                       !- Degree of Loop SubCooling
  <%= unitary_name %> HeatCDemand Inlet Node,  !- Water Inlet Node Name
  <%= unitary_name %> HeatCDemand Outlet Node,  !- Water Outlet Node Name
  <%= iv_air_inlet_node_nm %>,  !- Air Inlet Node Name
  <%= iv_air_outlet_node_nm %>,  !- Air Outlet Node Name
   ZoneLoadControl;     !- Coil Control Type


Branch,
  <%= unitary_name %> HW Branch,  !- Name
  ,                        !- Pressure Drop Curve Name
  Coil:Heating:Steam,      !- Component 1 Object Type
  <%= unitary_name %> Heating Coil,  !- Component 1 Name
  <%= unitary_name %> HeatCDemand Inlet Node,  !- Component 1 Inlet Node Name
  <%= unitary_name %> HeatCDemand Outlet Node;  !- Component 1 Outlet Node Name
!x!<% end %>

!x!<% if (cool_coil_type == "DX-WATER" or heat_coil_type == "DX-WATER") %>
!x!<% if dx_comp_speed_num == 1 %>
Branch,
  <%= unitary_name %> HR Branch,  !- Name
  ,                        !- Pressure Drop Curve Name
  Coil:Cooling:WaterToAirHeatPump:EquationFit,  !- Component 1 Object Type
  <%= unitary_name %> Cooling Coil,  !- Component 1 Name
  <%= unitary_name %> Water Source Inlet Node,  !- Component 1 Inlet Node Name
  <%= unitary_name %> Water Source Intermediate Node,  !- Component 1 Outlet Node Name
  Coil:Heating:WaterToAirHeatPump:EquationFit,  !- Component 2 Object Type
  <%= unitary_name %> Heating Coil,  !- Component 2 Name
  <%= unitary_name %> Water Source Intermediate Node,  !- Component 2 Inlet Node Name
  <%= unitary_name %> Water Source Outlet Node;  !- Component 2 Outlet Node Name
!x!<% elsif dx_comp_speed_num > 1 %>
Branch,
  <%= unitary_name %> HR Branch,  !- Name
  ,                        !- Pressure Drop Curve Name
  Coil:Cooling:WaterToAirHeatPump:VariableSpeedEquationFit,  !- Component 1 Object Type
  <%= unitary_name %> Cooling Coil,  !- Component 1 Name
  <%= unitary_name %> Water Source Inlet Node,  !- Component 1 Inlet Node Name
  <%= unitary_name %> Water Source Intermediate Node,  !- Component 1 Outlet Node Name
  Coil:Heating:WaterToAirHeatPump:VariableSpeedEquationFit,  !- Component 2 Object Type
  <%= unitary_name %> Heating Coil,  !- Component 2 Name
  <%= unitary_name %> Water Source Intermediate Node,  !- Component 2 Inlet Node Name
  <%= unitary_name %> Water Source Outlet Node;  !- Component 2 Outlet Node Name
!x!<% end %>
!x!<% end %>

!x!<% if (aux_heat_coil_type == "COMBUSTION") %>

!x! <% if (fan_config == "DRAW-THROUGH")
!x!  iv_air_inlet_node_nm = unitary_name + " Supply Fan Outlet Node"
!x! else
!x!  iv_air_inlet_node_nm = unitary_name + " Heating Coil Outlet Node"
!x! end %>
!x!
!x! <% if (control_type == "Setpoint")
!x!  iv_air_outlet_node_nm = unitary_name + " Unitary Outlet Node"
!x!  iv_temp_setpt_node_nm = unitary_name + " Unitary Outlet Node"
!x! else
!x!  iv_air_outlet_node_nm = unitary_name + " Unitary Outlet Node"
!x!  iv_temp_setpt_node_nm = ""
!x! end %>

 Coil:Heating:Fuel,
  <%= unitary_name %> Aux Heating Coil,  !- Name
  ,                        !- Availability Schedule Name
  <%= aux_heat_coil_fuel %>,  !- Fuel Type
  <%= aux_heat_coil_eff %>,  !- Gas Burner Efficiency
  <%= aux_heat_coil_cap %>,  !- Nominal Capacity {W}
  <%= iv_air_inlet_node_nm %>,  !- Air Inlet Node Name
  <%= iv_air_outlet_node_nm %>,  !- Air Outlet Node Name
  <%= iv_temp_setpt_node_nm %>;  !- Temperature Setpoint Node Name

!x!<% elsif (aux_heat_coil_type == "RESISTANCE") %>

!x! <% if (fan_config == "DRAW-THROUGH")
!x!  iv_air_inlet_node_nm = unitary_name + " Supply Fan Outlet Node"
!x! else
!x!  iv_air_inlet_node_nm = unitary_name + " Heating Coil Outlet Node"
!x! end %>
!x!
!x! <% if (control_type == "Setpoint")
!x!  iv_air_outlet_node_nm = unitary_name + " Unitary Outlet Node"
!x!  iv_temp_setpt_node_nm = unitary_name + " Unitary Outlet Node"
!x! else
!x!  iv_air_outlet_node_nm = unitary_name + " Unitary Outlet Node"
!x!  iv_temp_setpt_node_nm = ""
!x! end %>

 Coil:Heating:Electric,
  <%= unitary_name %> Aux Heating Coil,  !- Name
  ,                        !- Availability Schedule Name
  <%= aux_heat_coil_eff %>,  !- Efficiency
  <%= aux_heat_coil_cap %>,  !- Nominal Capacity {W}
  <%= iv_air_inlet_node_nm %>,  !- Air Inlet Node Name
  <%= iv_air_outlet_node_nm %>,  !- Air Outlet Node Name
  <%= iv_temp_setpt_node_nm %>;  !- Temperature Setpoint Node Name
!x!<% end %>

!x!<% if (cool_coil_type == "DX-AIR" and dx_comp_speed_num == 2) %>
!x!  <% if dx_type.include? "PNNL" %>
UnitarySystemPerformance:Multispeed,
  <%= unitary_name %> Multispeed Performance,  !- Name
  2,                       !- Number of Speeds for Heating
  2,                       !- Number of Speeds for Cooling
  <%= single_mode_operation %>,                      !- Single Mode Operation
  <%= ventilation_supply_air_ratio %>,                        !- No Load Supply Air Flow Rate Ratio
  <%= low_heating_supply_air_ratio %>,                    !- Heating Speed 1 Supply Air Flow Ratio
  <%= low_cooling_supply_air_ratio %>,                    !- Cooling Speed 1 Supply Air Flow Ratio
  1,                     !- Heating Speed 2 Supply Air Flow Ratio
  1;                     !- Cooling Speed 2 Supply Air Flow Ratio
!x!  <% else %>
UnitarySystemPerformance:Multispeed,
  <%= unitary_name %> Multispeed Performance,  !- Name
  2,                       !- Number of Speeds for Heating
  2,                       !- Number of Speeds for Cooling
  No,                      !- Single Mode Operation
  ,                        !- No Load Supply Air Flow Rate Ratio
  0.72,                    !- Heating Speed 1 Supply Air Flow Ratio
  0.72,                    !- Cooling Speed 1 Supply Air Flow Ratio
  1.0,                     !- Heating Speed 2 Supply Air Flow Ratio
  1.0;                     !- Cooling Speed 2 Supply Air Flow Ratio
!x!  <% end %>
!x!<% elsif (cool_coil_type == "DX-AIR" and dx_comp_speed_num == 4) %>
UnitarySystemPerformance:Multispeed,
  <%= unitary_name %> Multispeed Performance,  !- Name
  4,                       !- Number of Speeds for Heating
  4,                       !- Number of Speeds for Cooling
  No,                      !- Single Mode Operation
  ,                        !- No Load Supply Air Flow Rate Ratio
  0.24,                    !- Heating Speed 1 Supply Air Flow Ratio
  0.24,                    !- Cooling Speed 1 Supply Air Flow Ratio
  0.47,                    !- Heating Speed 2 Supply Air Flow Ratio
  0.47,                    !- Cooling Speed 2 Supply Air Flow Ratio
  0.75,                    !- Heating Speed 3 Supply Air Flow Ratio
  0.75,                    !- Cooling Speed 3 Supply Air Flow Ratio
  1.0,                     !- Heating Speed 4 Supply Air Flow Ratio
  1.0;                     !- Cooling Speed 4 Supply Air Flow Ratio
!x!<% end %>

!x!<%#
!x!# "DX-AIR" single-speed DX system in BeOpt
!x!# Cool-Cap-fFF  0.718605468,0.410099989,-0.128705457
!x!# Cool-EIR-fFF  1.32299905,-0.477711207,0.154712157
!x!
!x!# "DX-AIR" two-speed ASHP system in BeOpt
!x!# Cool-Cap-fFF1  0.655239515,0.511655216,-0.166894731
!x!# Cool-EIR-fFF1  1.639108268,-0.998953996,0.359845728
!x!# Cool-Cap-fFF2  0.618281092,0.569060264,-0.187341356
!x!# Cool-EIR-fFF2  1.570774717,-0.914152018,0.343377302
!x!
!x!# NOTE: The second set of 2-speed curves below never gets used! has same condition as above
!x!#       Only for cooling curves, not heating.
!x!
!x!# "DX-AIR" two-speed DX system in BeOpt
!x!# Cool-Cap-fFF1  0.65673024,0.516470835,-0.172887149
!x!# Cool-EIR-fFF1  1.562945114,-0.791859997,0.230030877
!x!# Cool-Cap-fFF2  0.690334551,0.464383753,-0.154507638
!x!# Cool-EIR-fFF2  1.31565404,-0.482467162,0.166239001
!x!
!x!# dx_type == "PACKAGED" and "SPLIT" for 4-speed ... curves look suspicious:
!x!# Cool-Cap-fFF1, Cool-EIR-fFF1    coeffs: 1,0,0
!x!# Cool-Cap-fFF2, Cool-EIR-fFF2    coeffs: 1,0,0
!x!# Cool-Cap-fFF3, Cool-EIR-fFF3    coeffs: 1,0,0
!x!# Cool-Cap-fFF4, Cool-EIR-fFF4    coeffs: 1,0,0
!x!# Same problem for heating curves...
!x!%>

!x!<%
!x!    #TRC - UnitarySystemSizing of the no load airflow does not account for ventilation rate when there is a DX coil, so in some cases the no load flow is less than the design ventilation rate.
!x!    #An EMS program is added to fix this for units configured with DX cooling, CONSTANT compressor speed and variable flow.
!x!    #This may remain an issue for any Unitary systems with multispeed compressors, two-speed fans or other configurations.
!x!
!x!if (cool_coil_type == "DX-AIR" && dx_comp_speed == "CONSTANT" && fan_speed == "VARIABLE")
!x!replacements = {' ' => '_','-' => '_','.' => '_','(' => '',')' => ''}
!x!unitary_name_ems = unitary_name.gsub(Regexp.union(replacements.keys), replacements)
!x!if (cool_flow_min_frac == nil) #if cool_flow_min_frac is default, set to EnergyPlus default for Constant Speed DX systems
!x!cool_flow_min_frac = 0.67
!x!end
!x!%>

!- Value of disable_ems = <%= disable_ems %>
!x!<%
!x!# Solaris Technical 2024-05-07
!x!# Because this airflow EMS logic interferes with Modelkit's linked-sizing feature, create a parameter to disable it.
!x!if (!disable_ems)
!x!%>
EnergyManagementSystem:Actuator,
    <%= unitary_name_ems %>_MINFLOW,  !- Name
    <%= unitary_name %> UNITARY,  !- Actuated Component Unique Name
    UnitarySystem,           !- Actuated Component Type
    Autosized Supply Air Flow Rate During No Heating or Cooling Operation;  !- Actuated Component Control Type

EnergyManagementSystem:Actuator,
    <%= unitary_name_ems %>_HMINFLOW,  !- Name
    <%= unitary_name %> UNITARY,  !- Actuated Component Unique Name
    UnitarySystem,           !- Actuated Component Type
    Autosized Supply Air Flow Rate During Heating Operation;  !- Actuated Component Control Type

EnergyManagementSystem:ProgramCallingManager,
    <%= unitary_name_ems %>_SizingAdjustment,        !- Name
    UnitarySystemSizing,     !- EnergyPlus Model Calling Point
    <%= unitary_name_ems %>_UnitaryDXMinFlowSizing;  !- Program Name 1

EnergyManagementSystem:Program,
    <%= unitary_name_ems %>_UnitaryDXMinFlowSizing,  !- Name
    Set Vent_Flow = <%= unitary_name_ems %>_OA_MFLOW / 1.225,  !- Program Line 1
    Set Design_Flow = <%= unitary_name_ems %>_MFLOW,  !- Program Line 2
    Set Design_HFlow = <%= unitary_name_ems %>_HMFLOW,  !- Program Line 3
    Set Design_Min_Flow = Design_Flow * <%= cool_flow_min_frac %>,  !- A4
    IF Vent_Flow >= Design_Flow,  !- A5
    Set Vent_Flow = Design_Flow * 0.999,  !- A6
    ENDIF,                   !- A7
    IF Design_HFlow <= Design_Min_Flow,   !- A8
    Set Design_HFlow = Design_Min_flow * 1.001,   !- A9
    Set <%= unitary_name_ems %>_HMINFLOW = Design_Min_Flow * 1.001,   !- A10
    ENDIF,   !- A11
    IF Vent_Flow >= Design_HFlow,  !- A12
    Set <%= unitary_name_ems %>_HMINFLOW = Vent_Flow * 1.001,  !- A13
    ENDIF,                   !- A14
    IF Vent_Flow > Design_Min_Flow,  !- A15
    Set <%= unitary_name_ems %>_MINFLOW = Vent_Flow,  !- A16
    ENDIF;                   !- A17

EnergyManagementSystem:InternalVariable,
    <%= unitary_name_ems %>_OA_MFLOW,  !- Name
    <%= unitary_name %> OA CONTROLLER,  !- Internal Data Index Key Name
    Outdoor Air Controller Minimum Mass Flow Rate;  !- Internal Data Type

EnergyManagementSystem:InternalVariable,
    <%= unitary_name_ems %>_MFLOW,  !- Name
    <%= unitary_name %>,  !- Internal Data Index Key Name
    Intermediate Air System Main Supply Volume Flow Rate;  !- Internal Data Type

EnergyManagementSystem:InternalVariable,
    <%= unitary_name_ems %>_HMFLOW,  !- Name
    <%= unitary_name %>,  !- Internal Data Index Key Name
    Intermediate Air System Heating Volume Flow Rate;  !- Internal Data Type
!x!<% end %>
!x!<% end %>
