  Version,25.1;

  GlobalGeometryRules,
    UpperLeftCorner,         !- Starting Vertex Position
    Counterclockwise,        !- Vertex Entry Direction
    Relative,                !- Coordinate System
    Relative,                !- Daylighting Reference Point Coordinate System
    Relative;                !- Rectangular Surface Coordinate System

  Zone,
    Classroom E2 North Perim (G.N3),  !- Name
    ,                        !- Direction of Relative North {deg}
    ,                        !- X Origin {m}
    ,                        !- Y Origin {m}
    ,                        !- Z Origin {m}
    ,                        !- Type
    1;                       !- Multiplier

  Zone,
    Classroom E2 South Perim (G.S2),  !- Name
    ,                        !- Direction of Relative North {deg}
    ,                        !- X Origin {m}
    ,                        !- Y Origin {m}
    ,                        !- Z Origin {m}
    ,                        !- Type
    1;                       !- Multiplier

  Zone,
    Classroom E2 West Perim (G.W1),  !- Name
    ,                        !- Direction of Relative North {deg}
    ,                        !- X Origin {m}
    ,                        !- Y Origin {m}
    ,                        !- Z Origin {m}
    ,                        !- Type
    1;                       !- Multiplier

  Zone,
    Classroom E4 East Perim (G.E2),  !- Name
    ,                        !- Direction of Relative North {deg}
    ,                        !- X Origin {m}
    ,                        !- Y Origin {m}
    ,                        !- Z Origin {m}
    ,                        !- Type
    1;                       !- Multiplier

  Zone,
    Classroom E4 East Perim (M.E14),  !- Name
    ,                        !- Direction of Relative North {deg}
    ,                        !- X Origin {m}
    ,                        !- Y Origin {m}
    ,                        !- Z Origin {m}
    ,                        !- Type
    1;                       !- Multiplier

  Zone,
    Classroom E4 East Perim (T.E26),  !- Name
    ,                        !- Direction of Relative North {deg}
    ,                        !- X Origin {m}
    ,                        !- Y Origin {m}
    ,                        !- Z Origin {m}
    ,                        !- Type
    1;                       !- Multiplier

  Zone,
    Classroom E4 North Perim (G.N3),  !- Name
    ,                        !- Direction of Relative North {deg}
    ,                        !- X Origin {m}
    ,                        !- Y Origin {m}
    ,                        !- Z Origin {m}
    ,                        !- Type
    1;                       !- Multiplier

  Zone,
    Classroom E4 North Perim (M.N15),  !- Name
    ,                        !- Direction of Relative North {deg}
    ,                        !- X Origin {m}
    ,                        !- Y Origin {m}
    ,                        !- Z Origin {m}
    ,                        !- Type
    1;                       !- Multiplier

  Zone,
    Classroom E4 North Perim (T.N27),  !- Name
    ,                        !- Direction of Relative North {deg}
    ,                        !- X Origin {m}
    ,                        !- Y Origin {m}
    ,                        !- Z Origin {m}
    ,                        !- Type
    1;                       !- Multiplier

  Zone,
    Classroom E4 South Perim (G.S1),  !- Name
    ,                        !- Direction of Relative North {deg}
    ,                        !- X Origin {m}
    ,                        !- Y Origin {m}
    ,                        !- Z Origin {m}
    ,                        !- Type
    1;                       !- Multiplier

  Zone,
    Classroom E4 South Perim (M.S13),  !- Name
    ,                        !- Direction of Relative North {deg}
    ,                        !- X Origin {m}
    ,                        !- Y Origin {m}
    ,                        !- Z Origin {m}
    ,                        !- Type
    1;                       !- Multiplier

  Zone,
    Classroom E4 South Perim (T.S25),  !- Name
    ,                        !- Direction of Relative North {deg}
    ,                        !- X Origin {m}
    ,                        !- Y Origin {m}
    ,                        !- Z Origin {m}
    ,                        !- Type
    1;                       !- Multiplier

  Zone,
    Classroom E4 West Perim (G.W4),  !- Name
    ,                        !- Direction of Relative North {deg}
    ,                        !- X Origin {m}
    ,                        !- Y Origin {m}
    ,                        !- Z Origin {m}
    ,                        !- Type
    1;                       !- Multiplier

  Zone,
    Classroom E4 West Perim (M.W16),  !- Name
    ,                        !- Direction of Relative North {deg}
    ,                        !- X Origin {m}
    ,                        !- Y Origin {m}
    ,                        !- Z Origin {m}
    ,                        !- Type
    1;                       !- Multiplier

  Zone,
    Classroom E4 West Perim (T.W28),  !- Name
    ,                        !- Direction of Relative North {deg}
    ,                        !- X Origin {m}
    ,                        !- Y Origin {m}
    ,                        !- Z Origin {m}
    ,                        !- Type
    1;                       !- Multiplier

  Zone,
    Computer E4 Core (G.C5), !- Name
    ,                        !- Direction of Relative North {deg}
    ,                        !- X Origin {m}
    ,                        !- Y Origin {m}
    ,                        !- Z Origin {m}
    ,                        !- Type
    1;                       !- Multiplier

  Zone,
    Computer E4 Core (M.C17),!- Name
    ,                        !- Direction of Relative North {deg}
    ,                        !- X Origin {m}
    ,                        !- Y Origin {m}
    ,                        !- Z Origin {m}
    ,                        !- Type
    1;                       !- Multiplier

  Zone,
    Computer E4 Core (T.C29),!- Name
    ,                        !- Direction of Relative North {deg}
    ,                        !- X Origin {m}
    ,                        !- Y Origin {m}
    ,                        !- Z Origin {m}
    ,                        !- Type
    1;                       !- Multiplier

  Zone,
    Corridor E9 Core (G.C3), !- Name
    ,                        !- Direction of Relative North {deg}
    ,                        !- X Origin {m}
    ,                        !- Y Origin {m}
    ,                        !- Z Origin {m}
    ,                        !- Type
    1;                       !- Multiplier

  Zone,
    Corridor E9 Core (M.C6), !- Name
    ,                        !- Direction of Relative North {deg}
    ,                        !- X Origin {m}
    ,                        !- Y Origin {m}
    ,                        !- Z Origin {m}
    ,                        !- Type
    1;                       !- Multiplier

  Zone,
    Corridor E9 Core (T.C9), !- Name
    ,                        !- Direction of Relative North {deg}
    ,                        !- X Origin {m}
    ,                        !- Y Origin {m}
    ,                        !- Z Origin {m}
    ,                        !- Type
    1;                       !- Multiplier

  Zone,
    Dining E3 South Perim (G.S1),  !- Name
    ,                        !- Direction of Relative North {deg}
    ,                        !- X Origin {m}
    ,                        !- Y Origin {m}
    ,                        !- Z Origin {m}
    ,                        !- Type
    1;                       !- Multiplier

  Zone,
    Dorm E9 North Perim (G.N1),  !- Name
    ,                        !- Direction of Relative North {deg}
    ,                        !- X Origin {m}
    ,                        !- Y Origin {m}
    ,                        !- Z Origin {m}
    ,                        !- Type
    1;                       !- Multiplier

  Zone,
    Dorm E9 North Perim (M.N4),  !- Name
    ,                        !- Direction of Relative North {deg}
    ,                        !- X Origin {m}
    ,                        !- Y Origin {m}
    ,                        !- Z Origin {m}
    ,                        !- Type
    1;                       !- Multiplier

  Zone,
    Dorm E9 North Perim (T.N7),  !- Name
    ,                        !- Direction of Relative North {deg}
    ,                        !- X Origin {m}
    ,                        !- Y Origin {m}
    ,                        !- Z Origin {m}
    ,                        !- Type
    1;                       !- Multiplier

  Zone,
    Dorm E9 South Perim (G.S2),  !- Name
    ,                        !- Direction of Relative North {deg}
    ,                        !- X Origin {m}
    ,                        !- Y Origin {m}
    ,                        !- Z Origin {m}
    ,                        !- Type
    1;                       !- Multiplier

  Zone,
    Dorm E9 South Perim (M.S5),  !- Name
    ,                        !- Direction of Relative North {deg}
    ,                        !- X Origin {m}
    ,                        !- Y Origin {m}
    ,                        !- Z Origin {m}
    ,                        !- Type
    1;                       !- Multiplier

  Zone,
    Dorm E9 South Perim (T.S8),  !- Name
    ,                        !- Direction of Relative North {deg}
    ,                        !- X Origin {m}
    ,                        !- Y Origin {m}
    ,                        !- Z Origin {m}
    ,                        !- Type
    1;                       !- Multiplier

  Zone,
    E1 West Perim Plnm (G.W2),  !- Name
    ,                        !- Direction of Relative North {deg}
    ,                        !- X Origin {m}
    ,                        !- Y Origin {m}
    ,                        !- Z Origin {m}
    ,                        !- Type
    1;                       !- Multiplier

  Zone,
    E2 North Perim Plnm (G.N6),  !- Name
    ,                        !- Direction of Relative North {deg}
    ,                        !- X Origin {m}
    ,                        !- Y Origin {m}
    ,                        !- Z Origin {m}
    ,                        !- Type
    1;                       !- Multiplier

  Zone,
    E2 South Perim Plnm (G.S5),  !- Name
    ,                        !- Direction of Relative North {deg}
    ,                        !- X Origin {m}
    ,                        !- Y Origin {m}
    ,                        !- Z Origin {m}
    ,                        !- Type
    1;                       !- Multiplier

  Zone,
    E2 West Perim Plnm (G.W4),  !- Name
    ,                        !- Direction of Relative North {deg}
    ,                        !- X Origin {m}
    ,                        !- Y Origin {m}
    ,                        !- Z Origin {m}
    ,                        !- Type
    1;                       !- Multiplier

  Zone,
    E4 Core Plnm (G.C11),    !- Name
    ,                        !- Direction of Relative North {deg}
    ,                        !- X Origin {m}
    ,                        !- Y Origin {m}
    ,                        !- Z Origin {m}
    ,                        !- Type
    1;                       !- Multiplier

  Zone,
    E4 Core Plnm (G.C12),    !- Name
    ,                        !- Direction of Relative North {deg}
    ,                        !- X Origin {m}
    ,                        !- Y Origin {m}
    ,                        !- Z Origin {m}
    ,                        !- Type
    1;                       !- Multiplier

  Zone,
    E4 Core Plnm (M.C23),    !- Name
    ,                        !- Direction of Relative North {deg}
    ,                        !- X Origin {m}
    ,                        !- Y Origin {m}
    ,                        !- Z Origin {m}
    ,                        !- Type
    1;                       !- Multiplier

  Zone,
    E4 Core Plnm (M.C24),    !- Name
    ,                        !- Direction of Relative North {deg}
    ,                        !- X Origin {m}
    ,                        !- Y Origin {m}
    ,                        !- Z Origin {m}
    ,                        !- Type
    1;                       !- Multiplier

  Zone,
    E4 Core Plnm (T.C35),    !- Name
    ,                        !- Direction of Relative North {deg}
    ,                        !- X Origin {m}
    ,                        !- Y Origin {m}
    ,                        !- Z Origin {m}
    ,                        !- Type
    1;                       !- Multiplier

  Zone,
    E4 Core Plnm (T.C36),    !- Name
    ,                        !- Direction of Relative North {deg}
    ,                        !- X Origin {m}
    ,                        !- Y Origin {m}
    ,                        !- Z Origin {m}
    ,                        !- Type
    1;                       !- Multiplier

  Zone,
    E4 East Perim Plnm (G.E8),  !- Name
    ,                        !- Direction of Relative North {deg}
    ,                        !- X Origin {m}
    ,                        !- Y Origin {m}
    ,                        !- Z Origin {m}
    ,                        !- Type
    1;                       !- Multiplier

  Zone,
    E4 East Perim Plnm (M.E20),  !- Name
    ,                        !- Direction of Relative North {deg}
    ,                        !- X Origin {m}
    ,                        !- Y Origin {m}
    ,                        !- Z Origin {m}
    ,                        !- Type
    1;                       !- Multiplier

  Zone,
    E4 East Perim Plnm (T.E32),  !- Name
    ,                        !- Direction of Relative North {deg}
    ,                        !- X Origin {m}
    ,                        !- Y Origin {m}
    ,                        !- Z Origin {m}
    ,                        !- Type
    1;                       !- Multiplier

  Zone,
    E4 North Perim Plnm (G.N9),  !- Name
    ,                        !- Direction of Relative North {deg}
    ,                        !- X Origin {m}
    ,                        !- Y Origin {m}
    ,                        !- Z Origin {m}
    ,                        !- Type
    1;                       !- Multiplier

  Zone,
    E4 North Perim Plnm (M.N21),  !- Name
    ,                        !- Direction of Relative North {deg}
    ,                        !- X Origin {m}
    ,                        !- Y Origin {m}
    ,                        !- Z Origin {m}
    ,                        !- Type
    1;                       !- Multiplier

  Zone,
    E4 North Perim Plnm (T.N33),  !- Name
    ,                        !- Direction of Relative North {deg}
    ,                        !- X Origin {m}
    ,                        !- Y Origin {m}
    ,                        !- Z Origin {m}
    ,                        !- Type
    1;                       !- Multiplier

  Zone,
    E4 South Perim Plnm (G.S7),  !- Name
    ,                        !- Direction of Relative North {deg}
    ,                        !- X Origin {m}
    ,                        !- Y Origin {m}
    ,                        !- Z Origin {m}
    ,                        !- Type
    1;                       !- Multiplier

  Zone,
    E4 South Perim Plnm (M.S19),  !- Name
    ,                        !- Direction of Relative North {deg}
    ,                        !- X Origin {m}
    ,                        !- Y Origin {m}
    ,                        !- Z Origin {m}
    ,                        !- Type
    1;                       !- Multiplier

  Zone,
    E4 South Perim Plnm (T.S31),  !- Name
    ,                        !- Direction of Relative North {deg}
    ,                        !- X Origin {m}
    ,                        !- Y Origin {m}
    ,                        !- Z Origin {m}
    ,                        !- Type
    1;                       !- Multiplier

  Zone,
    E4 West Perim Plnm (G.W10),  !- Name
    ,                        !- Direction of Relative North {deg}
    ,                        !- X Origin {m}
    ,                        !- Y Origin {m}
    ,                        !- Z Origin {m}
    ,                        !- Type
    1;                       !- Multiplier

  Zone,
    E4 West Perim Plnm (M.W22),  !- Name
    ,                        !- Direction of Relative North {deg}
    ,                        !- X Origin {m}
    ,                        !- Y Origin {m}
    ,                        !- Z Origin {m}
    ,                        !- Type
    1;                       !- Multiplier

  Zone,
    E4 West Perim Plnm (T.W34),  !- Name
    ,                        !- Direction of Relative North {deg}
    ,                        !- X Origin {m}
    ,                        !- Y Origin {m}
    ,                        !- Z Origin {m}
    ,                        !- Type
    1;                       !- Multiplier

  Zone,
    Kitchen E3 North Perim (G.N2),  !- Name
    ,                        !- Direction of Relative North {deg}
    ,                        !- X Origin {m}
    ,                        !- Y Origin {m}
    ,                        !- Z Origin {m}
    ,                        !- Type
    1;                       !- Multiplier

  Zone,
    Maintenance E1 West Perim (G.W1),  !- Name
    ,                        !- Direction of Relative North {deg}
    ,                        !- X Origin {m}
    ,                        !- Y Origin {m}
    ,                        !- Z Origin {m}
    ,                        !- Type
    1;                       !- Multiplier

  Zone,
    Office E4 Core (G.C6),   !- Name
    ,                        !- Direction of Relative North {deg}
    ,                        !- X Origin {m}
    ,                        !- Y Origin {m}
    ,                        !- Z Origin {m}
    ,                        !- Type
    1;                       !- Multiplier

  Zone,
    Office E4 Core (M.C18),  !- Name
    ,                        !- Direction of Relative North {deg}
    ,                        !- X Origin {m}
    ,                        !- Y Origin {m}
    ,                        !- Z Origin {m}
    ,                        !- Type
    1;                       !- Multiplier

  Zone,
    Office E4 Core (T.C30),  !- Name
    ,                        !- Direction of Relative North {deg}
    ,                        !- X Origin {m}
    ,                        !- Y Origin {m}
    ,                        !- Z Origin {m}
    ,                        !- Type
    1;                       !- Multiplier

  BuildingSurface:Detailed,
    BC3132,                  !- Name
    Wall,                    !- Surface Type
    Exterior Wall,           !- Construction Name
    E2 South Perim Plnm (G.S5),  !- Zone Name
    ,                        !- Space Name
    Outdoors,                !- Outside Boundary Condition
    ,                        !- Outside Boundary Condition Object
    SunExposed,              !- Sun Exposure
    WindExposed,             !- Wind Exposure
    ,                        !- View Factor to Ground
    4,                       !- Number of Vertices
    54.52872,9.144,4.2672,  !- X,Y,Z ==> Vertex 1 {m}
    54.52872,9.144,3.048,  !- X,Y,Z ==> Vertex 2 {m}
    54.52872,0,3.048,  !- X,Y,Z ==> Vertex 3 {m}
    54.52872,0,4.2672;  !- X,Y,Z ==> Vertex 4 {m}

  BuildingSurface:Detailed,
    E1 Ceiling (G.W1.I2)-mirror,  !- Name
    Floor,                   !- Surface Type
    Interior Floor,          !- Construction Name
    E1 West Perim Plnm (G.W2),  !- Zone Name
    ,                        !- Space Name
    Surface,                 !- Outside Boundary Condition
    E1 Ceiling (G.W1.I2)-mirror Reversed,  !- Outside Boundary Condition Object
    NoSun,                   !- Sun Exposure
    NoWind,                  !- Wind Exposure
    ,                        !- View Factor to Ground
    4,                       !- Number of Vertices
    54.52872,68.15328,3.048,  !- X,Y,Z ==> Vertex 1 {m}
    54.52872,0,3.048,  !- X,Y,Z ==> Vertex 2 {m}
    0,0,3.048,  !- X,Y,Z ==> Vertex 3 {m}
    0,68.15328,3.048;  !- X,Y,Z ==> Vertex 4 {m}

  BuildingSurface:Detailed,
    E1 Ceiling (G.W1.I2)-mirror Reversed,  !- Name
    Ceiling,                 !- Surface Type
    Interior Floor,          !- Construction Name
    Maintenance E1 West Perim (G.W1),  !- Zone Name
    ,                        !- Space Name
    Surface,                 !- Outside Boundary Condition
    E1 Ceiling (G.W1.I2)-mirror,  !- Outside Boundary Condition Object
    NoSun,                   !- Sun Exposure
    NoWind,                  !- Wind Exposure
    ,                        !- View Factor to Ground
    4,                       !- Number of Vertices
    0,68.15328,3.048,  !- X,Y,Z ==> Vertex 1 {m}
    0,0,3.048,  !- X,Y,Z ==> Vertex 2 {m}
    54.52872,0,3.048,  !- X,Y,Z ==> Vertex 3 {m}
    54.52872,68.15328,3.048;  !- X,Y,Z ==> Vertex 4 {m}

  BuildingSurface:Detailed,
    E1 East Wall (G.W1.I1),  !- Name
    Wall,                    !- Surface Type
    Interior Wall,           !- Construction Name
    Maintenance E1 West Perim (G.W1),  !- Zone Name
    ,                        !- Space Name
    Surface,                 !- Outside Boundary Condition
    E1 East Wall (G.W1.I1) Reversed,  !- Outside Boundary Condition Object
    NoSun,                   !- Sun Exposure
    NoWind,                  !- Wind Exposure
    ,                        !- View Factor to Ground
    4,                       !- Number of Vertices
    54.52872,58.9471008,3.048,  !- X,Y,Z ==> Vertex 1 {m}
    54.52872,58.9471008,0,  !- X,Y,Z ==> Vertex 2 {m}
    54.52872,68.15328,0,  !- X,Y,Z ==> Vertex 3 {m}
    54.52872,68.15328,3.048;  !- X,Y,Z ==> Vertex 4 {m}

  BuildingSurface:Detailed,
    E1 East Wall (G.W1.I1) Reversed,  !- Name
    Wall,                    !- Surface Type
    Interior Wall,           !- Construction Name
    Classroom E2 North Perim (G.N3),  !- Zone Name
    ,                        !- Space Name
    Surface,                 !- Outside Boundary Condition
    E1 East Wall (G.W1.I1),  !- Outside Boundary Condition Object
    NoSun,                   !- Sun Exposure
    NoWind,                  !- Wind Exposure
    ,                        !- View Factor to Ground
    4,                       !- Number of Vertices
    54.52872,68.15328,3.048,  !- X,Y,Z ==> Vertex 1 {m}
    54.52872,68.15328,0,  !- X,Y,Z ==> Vertex 2 {m}
    54.52872,58.9471008,0,  !- X,Y,Z ==> Vertex 3 {m}
    54.52872,58.9471008,3.048;  !- X,Y,Z ==> Vertex 4 {m}

  BuildingSurface:Detailed,
    E1 East Wall (G.W2.I3),  !- Name
    Wall,                    !- Surface Type
    Interior Wall,           !- Construction Name
    E1 West Perim Plnm (G.W2),  !- Zone Name
    ,                        !- Space Name
    Surface,                 !- Outside Boundary Condition
    E1 East Wall (G.W2.I3) Reversed,  !- Outside Boundary Condition Object
    NoSun,                   !- Sun Exposure
    NoWind,                  !- Wind Exposure
    ,                        !- View Factor to Ground
    4,                       !- Number of Vertices
    54.52872,58.9471008,4.2672,  !- X,Y,Z ==> Vertex 1 {m}
    54.52872,58.9471008,3.048,  !- X,Y,Z ==> Vertex 2 {m}
    54.52872,68.05422,3.048,  !- X,Y,Z ==> Vertex 3 {m}
    54.52872,68.05422,4.2672;  !- X,Y,Z ==> Vertex 4 {m}

  BuildingSurface:Detailed,
    E1 East Wall (G.W2.I3) Reversed,  !- Name
    Wall,                    !- Surface Type
    Interior Wall,           !- Construction Name
    E2 North Perim Plnm (G.N6),  !- Zone Name
    ,                        !- Space Name
    Surface,                 !- Outside Boundary Condition
    E1 East Wall (G.W2.I3),  !- Outside Boundary Condition Object
    NoSun,                   !- Sun Exposure
    NoWind,                  !- Wind Exposure
    ,                        !- View Factor to Ground
    4,                       !- Number of Vertices
    54.52872,68.05422,4.2672,  !- X,Y,Z ==> Vertex 1 {m}
    54.52872,68.05422,3.048,  !- X,Y,Z ==> Vertex 2 {m}
    54.52872,58.9471008,3.048,  !- X,Y,Z ==> Vertex 3 {m}
    54.52872,58.9471008,4.2672;  !- X,Y,Z ==> Vertex 4 {m}

  BuildingSurface:Detailed,
    E1 Flr (G.W1.U1),        !- Name
    Floor,                   !- Surface Type
    E1 Flr (G.W1.U1) SlabOnOrBelowGradeF073,  !- Construction Name
    Maintenance E1 West Perim (G.W1),  !- Zone Name
    ,                        !- Space Name
    GroundFCfactorMethod,    !- Outside Boundary Condition
    ,                        !- Outside Boundary Condition Object
    NoSun,                   !- Sun Exposure
    NoWind,                  !- Wind Exposure
    ,                        !- View Factor to Ground
    4,                       !- Number of Vertices
    54.52872,68.15328,0,  !- X,Y,Z ==> Vertex 1 {m}
    54.52872,0,0,  !- X,Y,Z ==> Vertex 2 {m}
    0,0,0,  !- X,Y,Z ==> Vertex 3 {m}
    0,68.15328,0;  !- X,Y,Z ==> Vertex 4 {m}

  BuildingSurface:Detailed,
    E1 North Wall (G.W1.E2), !- Name
    Wall,                    !- Surface Type
    Exterior Wall,           !- Construction Name
    Maintenance E1 West Perim (G.W1),  !- Zone Name
    ,                        !- Space Name
    Outdoors,                !- Outside Boundary Condition
    ,                        !- Outside Boundary Condition Object
    SunExposed,              !- Sun Exposure
    WindExposed,             !- Wind Exposure
    ,                        !- View Factor to Ground
    4,                       !- Number of Vertices
    54.52872,68.15328,3.048,  !- X,Y,Z ==> Vertex 1 {m}
    54.52872,68.15328,0,  !- X,Y,Z ==> Vertex 2 {m}
    0,68.15328,0,  !- X,Y,Z ==> Vertex 3 {m}
    0,68.15328,3.048;  !- X,Y,Z ==> Vertex 4 {m}

  BuildingSurface:Detailed,
    E1 North Wall (G.W2.E5), !- Name
    Wall,                    !- Surface Type
    Exterior Wall,           !- Construction Name
    E1 West Perim Plnm (G.W2),  !- Zone Name
    ,                        !- Space Name
    Outdoors,                !- Outside Boundary Condition
    ,                        !- Outside Boundary Condition Object
    SunExposed,              !- Sun Exposure
    WindExposed,             !- Wind Exposure
    ,                        !- View Factor to Ground
    4,                       !- Number of Vertices
    54.52872,68.15328,4.2672,  !- X,Y,Z ==> Vertex 1 {m}
    54.52872,68.15328,3.048,  !- X,Y,Z ==> Vertex 2 {m}
    0,68.15328,3.048,  !- X,Y,Z ==> Vertex 3 {m}
    0,68.15328,4.2672;  !- X,Y,Z ==> Vertex 4 {m}

  BuildingSurface:Detailed,
    E1 South Wall (G.W1.E1), !- Name
    Wall,                    !- Surface Type
    Exterior Wall,           !- Construction Name
    Maintenance E1 West Perim (G.W1),  !- Zone Name
    ,                        !- Space Name
    Outdoors,                !- Outside Boundary Condition
    ,                        !- Outside Boundary Condition Object
    SunExposed,              !- Sun Exposure
    WindExposed,             !- Wind Exposure
    ,                        !- View Factor to Ground
    4,                       !- Number of Vertices
    0,0,3.048,  !- X,Y,Z ==> Vertex 1 {m}
    0,0,0,  !- X,Y,Z ==> Vertex 2 {m}
    54.52872,0,0,  !- X,Y,Z ==> Vertex 3 {m}
    54.52872,0,3.048;  !- X,Y,Z ==> Vertex 4 {m}

  BuildingSurface:Detailed,
    E1 South Wall (G.W2.E4), !- Name
    Wall,                    !- Surface Type
    Exterior Wall,           !- Construction Name
    E1 West Perim Plnm (G.W2),  !- Zone Name
    ,                        !- Space Name
    Outdoors,                !- Outside Boundary Condition
    ,                        !- Outside Boundary Condition Object
    SunExposed,              !- Sun Exposure
    WindExposed,             !- Wind Exposure
    ,                        !- View Factor to Ground
    4,                       !- Number of Vertices
    0,0,4.2672,  !- X,Y,Z ==> Vertex 1 {m}
    0,0,3.048,  !- X,Y,Z ==> Vertex 2 {m}
    54.52872,0,3.048,  !- X,Y,Z ==> Vertex 3 {m}
    54.52872,0,4.2672;  !- X,Y,Z ==> Vertex 4 {m}

  BuildingSurface:Detailed,
    E1 West Perim Plnm (G.W2) - Wall 090_a,  !- Name
    Wall,                    !- Surface Type
    Interior Wall,           !- Construction Name
    E1 West Perim Plnm (G.W2),  !- Zone Name
    ,                        !- Space Name
    Surface,                 !- Outside Boundary Condition
    E1 West Perim Plnm (G.W2) - Wall 090_a Reversed,  !- Outside Boundary Condition Object
    NoSun,                   !- Sun Exposure
    NoWind,                  !- Wind Exposure
    ,                        !- View Factor to Ground
    4,                       !- Number of Vertices
    54.52872,0,4.2672,  !- X,Y,Z ==> Vertex 1 {m}
    54.52872,0,3.048,  !- X,Y,Z ==> Vertex 2 {m}
    54.52872,9.20651448,3.048,  !- X,Y,Z ==> Vertex 3 {m}
    54.52872,9.20651448,4.2672;  !- X,Y,Z ==> Vertex 4 {m}

  BuildingSurface:Detailed,
    E1 West Perim Plnm (G.W2) - Wall 090_a Reversed,  !- Name
    Wall,                    !- Surface Type
    Interior Wall,           !- Construction Name
    E2 South Perim Plnm (G.S5),  !- Zone Name
    ,                        !- Space Name
    Surface,                 !- Outside Boundary Condition
    E1 West Perim Plnm (G.W2) - Wall 090_a,  !- Outside Boundary Condition Object
    NoSun,                   !- Sun Exposure
    NoWind,                  !- Wind Exposure
    ,                        !- View Factor to Ground
    4,                       !- Number of Vertices
    54.52872,9.144,4.2672,  !- X,Y,Z ==> Vertex 1 {m}
    54.52872,9.144,3.048,  !- X,Y,Z ==> Vertex 2 {m}
    54.52872,0,3.048,  !- X,Y,Z ==> Vertex 3 {m}
    54.52872,0,4.2672;  !- X,Y,Z ==> Vertex 4 {m}

  BuildingSurface:Detailed,
    E1 West Perim Plnm (G.W2) - Wall 090_b,  !- Name
    Wall,                    !- Surface Type
    Interior Wall,           !- Construction Name
    E1 West Perim Plnm (G.W2),  !- Zone Name
    ,                        !- Space Name
    Surface,                 !- Outside Boundary Condition
    E1 West Perim Plnm (G.W2) - Wall 090_b Reversed,  !- Outside Boundary Condition Object
    NoSun,                   !- Sun Exposure
    NoWind,                  !- Wind Exposure
    ,                        !- View Factor to Ground
    4,                       !- Number of Vertices
    54.52872,9.20651448,4.2672,  !- X,Y,Z ==> Vertex 1 {m}
    54.52872,9.20651448,3.048,  !- X,Y,Z ==> Vertex 2 {m}
    54.52872,58.9471008,3.048,  !- X,Y,Z ==> Vertex 3 {m}
    54.52872,58.9471008,4.2672;  !- X,Y,Z ==> Vertex 4 {m}

  BuildingSurface:Detailed,
    E1 West Perim Plnm (G.W2) - Wall 090_b Reversed,  !- Name
    Wall,                    !- Surface Type
    Interior Wall,           !- Construction Name
    E2 West Perim Plnm (G.W4),  !- Zone Name
    ,                        !- Space Name
    Surface,                 !- Outside Boundary Condition
    E1 West Perim Plnm (G.W2) - Wall 090_b,  !- Outside Boundary Condition Object
    NoSun,                   !- Sun Exposure
    NoWind,                  !- Wind Exposure
    ,                        !- View Factor to Ground
    4,                       !- Number of Vertices
    54.52872,58.9471008,4.2672,  !- X,Y,Z ==> Vertex 1 {m}
    54.52872,58.9471008,3.048,  !- X,Y,Z ==> Vertex 2 {m}
    54.52872,9.20651448,3.048,  !- X,Y,Z ==> Vertex 3 {m}
    54.52872,9.20651448,4.2672;  !- X,Y,Z ==> Vertex 4 {m}

  BuildingSurface:Detailed,
    E1 West Perim Spc (G.W1) - Wall 090_a,  !- Name
    Wall,                    !- Surface Type
    Interior Wall,           !- Construction Name
    Maintenance E1 West Perim (G.W1),  !- Zone Name
    ,                        !- Space Name
    Surface,                 !- Outside Boundary Condition
    E1 West Perim Spc (G.W1) - Wall 090_a Reversed,  !- Outside Boundary Condition Object
    NoSun,                   !- Sun Exposure
    NoWind,                  !- Wind Exposure
    ,                        !- View Factor to Ground
    4,                       !- Number of Vertices
    54.52872,9.20651448,3.048,  !- X,Y,Z ==> Vertex 1 {m}
    54.52872,9.20651448,0,  !- X,Y,Z ==> Vertex 2 {m}
    54.52872,58.9471008,0,  !- X,Y,Z ==> Vertex 3 {m}
    54.52872,58.9471008,3.048;  !- X,Y,Z ==> Vertex 4 {m}

  BuildingSurface:Detailed,
    E1 West Perim Spc (G.W1) - Wall 090_a Reversed,  !- Name
    Wall,                    !- Surface Type
    Interior Wall,           !- Construction Name
    Classroom E2 West Perim (G.W1),  !- Zone Name
    ,                        !- Space Name
    Surface,                 !- Outside Boundary Condition
    E1 West Perim Spc (G.W1) - Wall 090_a,  !- Outside Boundary Condition Object
    NoSun,                   !- Sun Exposure
    NoWind,                  !- Wind Exposure
    ,                        !- View Factor to Ground
    4,                       !- Number of Vertices
    54.52872,58.9471008,3.048,  !- X,Y,Z ==> Vertex 1 {m}
    54.52872,58.9471008,0,  !- X,Y,Z ==> Vertex 2 {m}
    54.52872,9.144,0,  !- X,Y,Z ==> Vertex 3 {m}
    54.52872,9.144,3.048;  !- X,Y,Z ==> Vertex 4 {m}

  BuildingSurface:Detailed,
    E1 West Perim Spc (G.W1) - Wall 090_b,  !- Name
    Wall,                    !- Surface Type
    Interior Wall,           !- Construction Name
    Maintenance E1 West Perim (G.W1),  !- Zone Name
    ,                        !- Space Name
    Surface,                 !- Outside Boundary Condition
    E1 West Perim Spc (G.W1) - Wall 090_b Reversed,  !- Outside Boundary Condition Object
    NoSun,                   !- Sun Exposure
    NoWind,                  !- Wind Exposure
    ,                        !- View Factor to Ground
    4,                       !- Number of Vertices
    54.52872,0,3.048,  !- X,Y,Z ==> Vertex 1 {m}
    54.52872,0,0,  !- X,Y,Z ==> Vertex 2 {m}
    54.52872,9.20651448,0,  !- X,Y,Z ==> Vertex 3 {m}
    54.52872,9.20651448,3.048;  !- X,Y,Z ==> Vertex 4 {m}

  BuildingSurface:Detailed,
    E1 West Perim Spc (G.W1) - Wall 090_b Reversed,  !- Name
    Wall,                    !- Surface Type
    Interior Wall,           !- Construction Name
    Classroom E2 South Perim (G.S2),  !- Zone Name
    ,                        !- Space Name
    Surface,                 !- Outside Boundary Condition
    E1 West Perim Spc (G.W1) - Wall 090_b,  !- Outside Boundary Condition Object
    NoSun,                   !- Sun Exposure
    NoWind,                  !- Wind Exposure
    0,                       !- View Factor to Ground
    4,                       !- Number of Vertices
    54.52872,9.144,3.048,  !- X,Y,Z ==> Vertex 1 {m}
    54.52872,9.144,0,  !- X,Y,Z ==> Vertex 2 {m}
    54.52872,0,0,  !- X,Y,Z ==> Vertex 3 {m}
    54.52872,0,3.048;  !- X,Y,Z ==> Vertex 4 {m}

  BuildingSurface:Detailed,
    E1 West Wall (G.W1.E3),  !- Name
    Wall,                    !- Surface Type
    Exterior Wall,           !- Construction Name
    Maintenance E1 West Perim (G.W1),  !- Zone Name
    ,                        !- Space Name
    Outdoors,                !- Outside Boundary Condition
    ,                        !- Outside Boundary Condition Object
    SunExposed,              !- Sun Exposure
    WindExposed,             !- Wind Exposure
    ,                        !- View Factor to Ground
    4,                       !- Number of Vertices
    0,68.15328,3.048,  !- X,Y,Z ==> Vertex 1 {m}
    0,68.15328,0,  !- X,Y,Z ==> Vertex 2 {m}
    0,0,0,  !- X,Y,Z ==> Vertex 3 {m}
    0,0,3.048;  !- X,Y,Z ==> Vertex 4 {m}

  BuildingSurface:Detailed,
    E1 West Wall (G.W2.E6),  !- Name
    Wall,                    !- Surface Type
    Exterior Wall,           !- Construction Name
    E1 West Perim Plnm (G.W2),  !- Zone Name
    ,                        !- Space Name
    Outdoors,                !- Outside Boundary Condition
    ,                        !- Outside Boundary Condition Object
    SunExposed,              !- Sun Exposure
    WindExposed,             !- Wind Exposure
    ,                        !- View Factor to Ground
    4,                       !- Number of Vertices
    0,68.15328,4.2672,  !- X,Y,Z ==> Vertex 1 {m}
    0,68.15328,3.048,  !- X,Y,Z ==> Vertex 2 {m}
    0,0,3.048,  !- X,Y,Z ==> Vertex 3 {m}
    0,0,4.2672;  !- X,Y,Z ==> Vertex 4 {m}

  BuildingSurface:Detailed,
    E2 Ceiling (G.N3.I11)-mirror,  !- Name
    Floor,                   !- Surface Type
    Interior Floor,          !- Construction Name
    E2 North Perim Plnm (G.N6),  !- Zone Name
    ,                        !- Space Name
    Surface,                 !- Outside Boundary Condition
    E2 Ceiling (G.N3.I11)-mirror Reversed,  !- Outside Boundary Condition Object
    NoSun,                   !- Sun Exposure
    NoWind,                  !- Wind Exposure
    ,                        !- View Factor to Ground
    4,                       !- Number of Vertices
    112.97412,68.15328,3.048,  !- X,Y,Z ==> Vertex 1 {m}
    112.97412,58.9471008,3.048,  !- X,Y,Z ==> Vertex 2 {m}
    54.52872,58.9471008,3.048,  !- X,Y,Z ==> Vertex 3 {m}
    54.52872,68.15328,3.048;  !- X,Y,Z ==> Vertex 4 {m}

  BuildingSurface:Detailed,
    E2 Ceiling (G.N3.I11)-mirror Reversed,  !- Name
    Ceiling,                 !- Surface Type
    Interior Floor,          !- Construction Name
    Classroom E2 North Perim (G.N3),  !- Zone Name
    ,                        !- Space Name
    Surface,                 !- Outside Boundary Condition
    E2 Ceiling (G.N3.I11)-mirror,  !- Outside Boundary Condition Object
    NoSun,                   !- Sun Exposure
    NoWind,                  !- Wind Exposure
    ,                        !- View Factor to Ground
    4,                       !- Number of Vertices
    54.52872,68.15328,3.048,  !- X,Y,Z ==> Vertex 1 {m}
    54.52872,58.9471008,3.048,  !- X,Y,Z ==> Vertex 2 {m}
    112.97412,58.9471008,3.048,  !- X,Y,Z ==> Vertex 3 {m}
    112.97412,68.15328,3.048;  !- X,Y,Z ==> Vertex 4 {m}

  BuildingSurface:Detailed,
    E2 Ceiling (G.S2.I8)-mirror,  !- Name
    Floor,                   !- Surface Type
    Interior Floor,          !- Construction Name
    E2 South Perim Plnm (G.S5),  !- Zone Name
    ,                        !- Space Name
    Surface,                 !- Outside Boundary Condition
    E2 Ceiling (G.S2.I8)-mirror Reversed,  !- Outside Boundary Condition Object
    NoSun,                   !- Sun Exposure
    NoWind,                  !- Wind Exposure
    ,                        !- View Factor to Ground
    4,                       !- Number of Vertices
    112.97412,9.144,3.048,  !- X,Y,Z ==> Vertex 1 {m}
    112.97412,0,3.048,  !- X,Y,Z ==> Vertex 2 {m}
    54.52872,0,3.048,  !- X,Y,Z ==> Vertex 3 {m}
    54.52872,9.144,3.048;  !- X,Y,Z ==> Vertex 4 {m}

  BuildingSurface:Detailed,
    E2 Ceiling (G.S2.I8)-mirror Reversed,  !- Name
    Ceiling,                 !- Surface Type
    Interior Floor,          !- Construction Name
    Classroom E2 South Perim (G.S2),  !- Zone Name
    ,                        !- Space Name
    Surface,                 !- Outside Boundary Condition
    E2 Ceiling (G.S2.I8)-mirror,  !- Outside Boundary Condition Object
    NoSun,                   !- Sun Exposure
    NoWind,                  !- Wind Exposure
    ,                        !- View Factor to Ground
    4,                       !- Number of Vertices
    54.52872,9.144,3.048,  !- X,Y,Z ==> Vertex 1 {m}
    54.52872,0,3.048,  !- X,Y,Z ==> Vertex 2 {m}
    112.97412,0,3.048,  !- X,Y,Z ==> Vertex 3 {m}
    112.97412,9.144,3.048;  !- X,Y,Z ==> Vertex 4 {m}

  BuildingSurface:Detailed,
    E2 Ceiling (G.W1.I5)-mirror,  !- Name
    Floor,                   !- Surface Type
    Interior Floor,          !- Construction Name
    E2 West Perim Plnm (G.W4),  !- Zone Name
    ,                        !- Space Name
    Surface,                 !- Outside Boundary Condition
    E2 Ceiling (G.W1.I5)-mirror Reversed,  !- Outside Boundary Condition Object
    NoSun,                   !- Sun Exposure
    NoWind,                  !- Wind Exposure
    ,                        !- View Factor to Ground
    4,                       !- Number of Vertices
    112.97412,58.9471008,3.048,  !- X,Y,Z ==> Vertex 1 {m}
    112.97412,9.144,3.048,  !- X,Y,Z ==> Vertex 2 {m}
    54.52872,9.144,3.048,  !- X,Y,Z ==> Vertex 3 {m}
    54.52872,58.9471008,3.048;  !- X,Y,Z ==> Vertex 4 {m}

  BuildingSurface:Detailed,
    E2 Ceiling (G.W1.I5)-mirror Reversed,  !- Name
    Ceiling,                 !- Surface Type
    Interior Floor,          !- Construction Name
    Classroom E2 West Perim (G.W1),  !- Zone Name
    ,                        !- Space Name
    Surface,                 !- Outside Boundary Condition
    E2 Ceiling (G.W1.I5)-mirror,  !- Outside Boundary Condition Object
    NoSun,                   !- Sun Exposure
    NoWind,                  !- Wind Exposure
    ,                        !- View Factor to Ground
    4,                       !- Number of Vertices
    54.52872,58.9471008,3.048,  !- X,Y,Z ==> Vertex 1 {m}
    54.52872,9.144,3.048,  !- X,Y,Z ==> Vertex 2 {m}
    112.97412,9.144,3.048,  !- X,Y,Z ==> Vertex 3 {m}
    112.97412,58.9471008,3.048;  !- X,Y,Z ==> Vertex 4 {m}

  BuildingSurface:Detailed,
    E2 East Wall (G.N6.I19), !- Name
    Wall,                    !- Surface Type
    Interior Wall,           !- Construction Name
    E2 North Perim Plnm (G.N6),  !- Zone Name
    ,                        !- Space Name
    Surface,                 !- Outside Boundary Condition
    E2 East Wall (G.N6.I19) Reversed,  !- Outside Boundary Condition Object
    NoSun,                   !- Sun Exposure
    NoWind,                  !- Wind Exposure
    ,                        !- View Factor to Ground
    4,                       !- Number of Vertices
    112.97412,58.9471008,4.2672,  !- X,Y,Z ==> Vertex 1 {m}
    112.97412,58.9471008,3.048,  !- X,Y,Z ==> Vertex 2 {m}
    112.97412,68.15328,3.048,  !- X,Y,Z ==> Vertex 3 {m}
    112.97412,68.15328,4.2672;  !- X,Y,Z ==> Vertex 4 {m}

  BuildingSurface:Detailed,
    E2 East Wall (G.N6.I19) Reversed,  !- Name
    Wall,                    !- Surface Type
    Interior Wall,           !- Construction Name
    Kitchen E3 North Perim (G.N2),  !- Zone Name
    ,                        !- Space Name
    Surface,                 !- Outside Boundary Condition
    E2 East Wall (G.N6.I19), !- Outside Boundary Condition Object
    NoSun,                   !- Sun Exposure
    NoWind,                  !- Wind Exposure
    ,                        !- View Factor to Ground
    4,                       !- Number of Vertices
    112.97412,68.15328,4.2672,  !- X,Y,Z ==> Vertex 1 {m}
    112.97412,68.15328,3.048,  !- X,Y,Z ==> Vertex 2 {m}
    112.97412,58.9471008,3.048,  !- X,Y,Z ==> Vertex 3 {m}
    112.97412,58.9471008,4.2672;  !- X,Y,Z ==> Vertex 4 {m}

  BuildingSurface:Detailed,
    E2 East Wall (G.S2.I6),  !- Name
    Wall,                    !- Surface Type
    Interior Wall,           !- Construction Name
    Classroom E2 South Perim (G.S2),  !- Zone Name
    ,                        !- Space Name
    Surface,                 !- Outside Boundary Condition
    E2 East Wall (G.S2.I6) Reversed,  !- Outside Boundary Condition Object
    NoSun,                   !- Sun Exposure
    NoWind,                  !- Wind Exposure
    ,                        !- View Factor to Ground
    4,                       !- Number of Vertices
    112.97412,0,3.048,  !- X,Y,Z ==> Vertex 1 {m}
    112.97412,0,0,  !- X,Y,Z ==> Vertex 2 {m}
    112.97412,9.144,0,  !- X,Y,Z ==> Vertex 3 {m}
    112.97412,9.144,3.048;  !- X,Y,Z ==> Vertex 4 {m}

  BuildingSurface:Detailed,
    E2 East Wall (G.S2.I6) Reversed,  !- Name
    Wall,                    !- Surface Type
    Interior Wall,           !- Construction Name
    Dining E3 South Perim (G.S1),  !- Zone Name
    ,                        !- Space Name
    Surface,                 !- Outside Boundary Condition
    E2 East Wall (G.S2.I6),  !- Outside Boundary Condition Object
    NoSun,                   !- Sun Exposure
    NoWind,                  !- Wind Exposure
    ,                        !- View Factor to Ground
    4,                       !- Number of Vertices
    112.97412,9.144,3.048,  !- X,Y,Z ==> Vertex 1 {m}
    112.97412,9.144,0,  !- X,Y,Z ==> Vertex 2 {m}
    112.97412,0,0,  !- X,Y,Z ==> Vertex 3 {m}
    112.97412,0,3.048;  !- X,Y,Z ==> Vertex 4 {m}

  BuildingSurface:Detailed,
    E2 East Wall (G.S5.I16), !- Name
    Wall,                    !- Surface Type
    Interior Wall,           !- Construction Name
    E2 South Perim Plnm (G.S5),  !- Zone Name
    ,                        !- Space Name
    Surface,                 !- Outside Boundary Condition
    E2 East Wall (G.S5.I16) Reversed,  !- Outside Boundary Condition Object
    NoSun,                   !- Sun Exposure
    NoWind,                  !- Wind Exposure
    ,                        !- View Factor to Ground
    4,                       !- Number of Vertices
    112.97412,0,4.2672,  !- X,Y,Z ==> Vertex 1 {m}
    112.97412,0,3.048,  !- X,Y,Z ==> Vertex 2 {m}
    112.97412,9.144,3.048,  !- X,Y,Z ==> Vertex 3 {m}
    112.97412,9.144,4.2672;  !- X,Y,Z ==> Vertex 4 {m}

  BuildingSurface:Detailed,
    E2 East Wall (G.S5.I16) Reversed,  !- Name
    Wall,                    !- Surface Type
    Interior Wall,           !- Construction Name
    Dining E3 South Perim (G.S1),  !- Zone Name
    ,                        !- Space Name
    Surface,                 !- Outside Boundary Condition
    E2 East Wall (G.S5.I16), !- Outside Boundary Condition Object
    NoSun,                   !- Sun Exposure
    NoWind,                  !- Wind Exposure
    ,                        !- View Factor to Ground
    4,                       !- Number of Vertices
    112.97412,9.144,4.2672,  !- X,Y,Z ==> Vertex 1 {m}
    112.97412,9.144,3.048,  !- X,Y,Z ==> Vertex 2 {m}
    112.97412,0,3.048,  !- X,Y,Z ==> Vertex 3 {m}
    112.97412,0,4.2672;  !- X,Y,Z ==> Vertex 4 {m}

  BuildingSurface:Detailed,
    E2 East Wall (G.W1.I2),  !- Name
    Wall,                    !- Surface Type
    Interior Wall,           !- Construction Name
    Classroom E2 West Perim (G.W1),  !- Zone Name
    ,                        !- Space Name
    Surface,                 !- Outside Boundary Condition
    E2 East Wall (G.W1.I2) Reversed,  !- Outside Boundary Condition Object
    NoSun,                   !- Sun Exposure
    NoWind,                  !- Wind Exposure
    ,                        !- View Factor to Ground
    4,                       !- Number of Vertices
    112.97412,47.338488,3.048,  !- X,Y,Z ==> Vertex 1 {m}
    112.97412,47.338488,0,  !- X,Y,Z ==> Vertex 2 {m}
    112.97412,58.9471008,0,  !- X,Y,Z ==> Vertex 3 {m}
    112.97412,58.9471008,3.048;  !- X,Y,Z ==> Vertex 4 {m}

  BuildingSurface:Detailed,
    E2 East Wall (G.W1.I2) Reversed,  !- Name
    Wall,                    !- Surface Type
    Interior Wall,           !- Construction Name
    Kitchen E3 North Perim (G.N2),  !- Zone Name
    ,                        !- Space Name
    Surface,                 !- Outside Boundary Condition
    E2 East Wall (G.W1.I2),  !- Outside Boundary Condition Object
    NoSun,                   !- Sun Exposure
    NoWind,                  !- Wind Exposure
    ,                        !- View Factor to Ground
    4,                       !- Number of Vertices
    112.97412,58.9471008,3.048,  !- X,Y,Z ==> Vertex 1 {m}
    112.97412,58.9471008,0,  !- X,Y,Z ==> Vertex 2 {m}
    112.97412,47.338488,0,  !- X,Y,Z ==> Vertex 3 {m}
    112.97412,47.338488,3.048;  !- X,Y,Z ==> Vertex 4 {m}

  BuildingSurface:Detailed,
    E2 East Wall (G.W4.I13), !- Name
    Wall,                    !- Surface Type
    Interior Wall,           !- Construction Name
    E2 West Perim Plnm (G.W4),  !- Zone Name
    ,                        !- Space Name
    Surface,                 !- Outside Boundary Condition
    E2 East Wall (G.W4.I13) Reversed,  !- Outside Boundary Condition Object
    NoSun,                   !- Sun Exposure
    NoWind,                  !- Wind Exposure
    ,                        !- View Factor to Ground
    4,                       !- Number of Vertices
    112.97412,47.338488,4.2672,  !- X,Y,Z ==> Vertex 1 {m}
    112.97412,47.338488,3.048,  !- X,Y,Z ==> Vertex 2 {m}
    112.97412,58.9471008,3.048,  !- X,Y,Z ==> Vertex 3 {m}
    112.97412,58.9471008,4.2672;  !- X,Y,Z ==> Vertex 4 {m}

  BuildingSurface:Detailed,
    E2 East Wall (G.W4.I13) Reversed,  !- Name
    Wall,                    !- Surface Type
    Interior Wall,           !- Construction Name
    Kitchen E3 North Perim (G.N2),  !- Zone Name
    ,                        !- Space Name
    Surface,                 !- Outside Boundary Condition
    E2 East Wall (G.W4.I13), !- Outside Boundary Condition Object
    NoSun,                   !- Sun Exposure
    NoWind,                  !- Wind Exposure
    ,                        !- View Factor to Ground
    4,                       !- Number of Vertices
    112.97412,58.9471008,4.2672,  !- X,Y,Z ==> Vertex 1 {m}
    112.97412,58.9471008,3.048,  !- X,Y,Z ==> Vertex 2 {m}
    112.97412,47.338488,3.048,  !- X,Y,Z ==> Vertex 3 {m}
    112.97412,47.338488,4.2672;  !- X,Y,Z ==> Vertex 4 {m}

  BuildingSurface:Detailed,
    E2 Flr (G.N3.U3),        !- Name
    Floor,                   !- Surface Type
    E2 Flr (G.N3.U3) SlabOnOrBelowGradeF073,  !- Construction Name
    Classroom E2 North Perim (G.N3),  !- Zone Name
    ,                        !- Space Name
    GroundFCfactorMethod,    !- Outside Boundary Condition
    ,                        !- Outside Boundary Condition Object
    NoSun,                   !- Sun Exposure
    NoWind,                  !- Wind Exposure
    ,                        !- View Factor to Ground
    4,                       !- Number of Vertices
    112.97412,68.15328,0,  !- X,Y,Z ==> Vertex 1 {m}
    112.97412,58.9471008,0,  !- X,Y,Z ==> Vertex 2 {m}
    54.52872,58.9471008,0,  !- X,Y,Z ==> Vertex 3 {m}
    54.52872,68.15328,0;  !- X,Y,Z ==> Vertex 4 {m}

  BuildingSurface:Detailed,
    E2 Flr (G.S2.U2),        !- Name
    Floor,                   !- Surface Type
    E2 Flr (G.S2.U2) SlabOnOrBelowGradeF073,  !- Construction Name
    Classroom E2 South Perim (G.S2),  !- Zone Name
    ,                        !- Space Name
    GroundFCfactorMethod,    !- Outside Boundary Condition
    ,                        !- Outside Boundary Condition Object
    NoSun,                   !- Sun Exposure
    NoWind,                  !- Wind Exposure
    ,                        !- View Factor to Ground
    4,                       !- Number of Vertices
    112.97412,9.144,0,  !- X,Y,Z ==> Vertex 1 {m}
    112.97412,0,0,  !- X,Y,Z ==> Vertex 2 {m}
    54.52872,0,0,  !- X,Y,Z ==> Vertex 3 {m}
    54.52872,9.144,0;  !- X,Y,Z ==> Vertex 4 {m}

  BuildingSurface:Detailed,
    E2 Flr (G.W1.U1),        !- Name
    Floor,                   !- Surface Type
    E2 Flr (G.W1.U1) SlabOnOrBelowGradeF073,  !- Construction Name
    Classroom E2 West Perim (G.W1),  !- Zone Name
    ,                        !- Space Name
    GroundFCfactorMethod,    !- Outside Boundary Condition
    ,                        !- Outside Boundary Condition Object
    NoSun,                   !- Sun Exposure
    NoWind,                  !- Wind Exposure
    ,                        !- View Factor to Ground
    4,                       !- Number of Vertices
    112.97412,58.9471008,0,  !- X,Y,Z ==> Vertex 1 {m}
    112.97412,9.144,0,  !- X,Y,Z ==> Vertex 2 {m}
    54.52872,9.144,0,  !- X,Y,Z ==> Vertex 3 {m}
    54.52872,58.9471008,0;  !- X,Y,Z ==> Vertex 4 {m}

  BuildingSurface:Detailed,
    E2 North Wall (G.N3.E2), !- Name
    Wall,                    !- Surface Type
    Exterior Wall,           !- Construction Name
    Classroom E2 North Perim (G.N3),  !- Zone Name
    ,                        !- Space Name
    Outdoors,                !- Outside Boundary Condition
    ,                        !- Outside Boundary Condition Object
    SunExposed,              !- Sun Exposure
    WindExposed,             !- Wind Exposure
    ,                        !- View Factor to Ground
    4,                       !- Number of Vertices
    112.97412,68.15328,3.048,  !- X,Y,Z ==> Vertex 1 {m}
    112.97412,68.15328,0,  !- X,Y,Z ==> Vertex 2 {m}
    54.52872,68.15328,0,  !- X,Y,Z ==> Vertex 3 {m}
    54.52872,68.15328,3.048;  !- X,Y,Z ==> Vertex 4 {m}

  BuildingSurface:Detailed,
    E2 North Wall (G.N6.E4), !- Name
    Wall,                    !- Surface Type
    Exterior Wall,           !- Construction Name
    E2 North Perim Plnm (G.N6),  !- Zone Name
    ,                        !- Space Name
    Outdoors,                !- Outside Boundary Condition
    ,                        !- Outside Boundary Condition Object
    SunExposed,              !- Sun Exposure
    WindExposed,             !- Wind Exposure
    ,                        !- View Factor to Ground
    4,                       !- Number of Vertices
    112.97412,68.15328,4.2672,  !- X,Y,Z ==> Vertex 1 {m}
    112.97412,68.15328,3.048,  !- X,Y,Z ==> Vertex 2 {m}
    54.52872,68.15328,3.048,  !- X,Y,Z ==> Vertex 3 {m}
    54.52872,68.15328,4.2672;  !- X,Y,Z ==> Vertex 4 {m}

  BuildingSurface:Detailed,
    E2 North Wall (G.W1.I3), !- Name
    Wall,                    !- Surface Type
    Interior Wall,           !- Construction Name
    Classroom E2 West Perim (G.W1),  !- Zone Name
    ,                        !- Space Name
    Surface,                 !- Outside Boundary Condition
    E2 North Wall (G.W1.I3) Reversed,  !- Outside Boundary Condition Object
    NoSun,                   !- Sun Exposure
    NoWind,                  !- Wind Exposure
    ,                        !- View Factor to Ground
    4,                       !- Number of Vertices
    112.97412,58.9471008,3.048,  !- X,Y,Z ==> Vertex 1 {m}
    112.97412,58.9471008,0,  !- X,Y,Z ==> Vertex 2 {m}
    54.52872,58.9471008,0,  !- X,Y,Z ==> Vertex 3 {m}
    54.52872,58.9471008,3.048;  !- X,Y,Z ==> Vertex 4 {m}

  BuildingSurface:Detailed,
    E2 North Wall (G.W1.I3) Reversed,  !- Name
    Wall,                    !- Surface Type
    Interior Wall,           !- Construction Name
    Classroom E2 North Perim (G.N3),  !- Zone Name
    ,                        !- Space Name
    Surface,                 !- Outside Boundary Condition
    E2 North Wall (G.W1.I3), !- Outside Boundary Condition Object
    NoSun,                   !- Sun Exposure
    NoWind,                  !- Wind Exposure
    ,                        !- View Factor to Ground
    4,                       !- Number of Vertices
    54.52872,58.9471008,3.048,  !- X,Y,Z ==> Vertex 1 {m}
    54.52872,58.9471008,0,  !- X,Y,Z ==> Vertex 2 {m}
    112.97412,58.9471008,0,  !- X,Y,Z ==> Vertex 3 {m}
    112.97412,58.9471008,3.048;  !- X,Y,Z ==> Vertex 4 {m}

  BuildingSurface:Detailed,
    E2 North Wall (G.W4.I14)-mirror,  !- Name
    Wall,                    !- Surface Type
    Interior Wall,           !- Construction Name
    E2 North Perim Plnm (G.N6),  !- Zone Name
    ,                        !- Space Name
    Surface,                 !- Outside Boundary Condition
    E2 North Wall (G.W4.I14)-mirror Reversed,  !- Outside Boundary Condition Object
    NoSun,                   !- Sun Exposure
    NoWind,                  !- Wind Exposure
    ,                        !- View Factor to Ground
    4,                       !- Number of Vertices
    54.52872,58.9471008,4.2672,  !- X,Y,Z ==> Vertex 1 {m}
    54.52872,58.9471008,3.048,  !- X,Y,Z ==> Vertex 2 {m}
    112.97412,58.9471008,3.048,  !- X,Y,Z ==> Vertex 3 {m}
    112.97412,58.9471008,4.2672;  !- X,Y,Z ==> Vertex 4 {m}

  BuildingSurface:Detailed,
    E2 North Wall (G.W4.I14)-mirror Reversed,  !- Name
    Wall,                    !- Surface Type
    Interior Wall,           !- Construction Name
    E2 West Perim Plnm (G.W4),  !- Zone Name
    ,                        !- Space Name
    Surface,                 !- Outside Boundary Condition
    E2 North Wall (G.W4.I14)-mirror,  !- Outside Boundary Condition Object
    NoSun,                   !- Sun Exposure
    NoWind,                  !- Wind Exposure
    ,                        !- View Factor to Ground
    4,                       !- Number of Vertices
    112.97412,58.9471008,4.2672,  !- X,Y,Z ==> Vertex 1 {m}
    112.97412,58.9471008,3.048,  !- X,Y,Z ==> Vertex 2 {m}
    54.52872,58.9471008,3.048,  !- X,Y,Z ==> Vertex 3 {m}
    54.52872,58.9471008,4.2672;  !- X,Y,Z ==> Vertex 4 {m}

  BuildingSurface:Detailed,
    E2 South Wall (G.S2.E1), !- Name
    Wall,                    !- Surface Type
    Exterior Wall,           !- Construction Name
    Classroom E2 South Perim (G.S2),  !- Zone Name
    ,                        !- Space Name
    Outdoors,                !- Outside Boundary Condition
    ,                        !- Outside Boundary Condition Object
    SunExposed,              !- Sun Exposure
    WindExposed,             !- Wind Exposure
    ,                        !- View Factor to Ground
    4,                       !- Number of Vertices
    54.52872,0,3.048,  !- X,Y,Z ==> Vertex 1 {m}
    54.52872,0,0,  !- X,Y,Z ==> Vertex 2 {m}
    112.97412,0,0,  !- X,Y,Z ==> Vertex 3 {m}
    112.97412,0,3.048;  !- X,Y,Z ==> Vertex 4 {m}

  BuildingSurface:Detailed,
    E2 South Wall (G.S5.E3), !- Name
    Wall,                    !- Surface Type
    Exterior Wall,           !- Construction Name
    E2 South Perim Plnm (G.S5),  !- Zone Name
    ,                        !- Space Name
    Outdoors,                !- Outside Boundary Condition
    ,                        !- Outside Boundary Condition Object
    SunExposed,              !- Sun Exposure
    WindExposed,             !- Wind Exposure
    ,                        !- View Factor to Ground
    4,                       !- Number of Vertices
    54.52872,0,4.2672,  !- X,Y,Z ==> Vertex 1 {m}
    54.52872,0,3.048,  !- X,Y,Z ==> Vertex 2 {m}
    112.97412,0,3.048,  !- X,Y,Z ==> Vertex 3 {m}
    112.97412,0,4.2672;  !- X,Y,Z ==> Vertex 4 {m}

  BuildingSurface:Detailed,
    E2 South Wall (G.W1.I1)-mirror,  !- Name
    Wall,                    !- Surface Type
    Interior Wall,           !- Construction Name
    Classroom E2 South Perim (G.S2),  !- Zone Name
    ,                        !- Space Name
    Surface,                 !- Outside Boundary Condition
    E2 South Wall (G.W1.I1)-mirror Reversed,  !- Outside Boundary Condition Object
    NoSun,                   !- Sun Exposure
    NoWind,                  !- Wind Exposure
    ,                        !- View Factor to Ground
    4,                       !- Number of Vertices
    112.97412,9.144,3.048,  !- X,Y,Z ==> Vertex 1 {m}
    112.97412,9.144,0,  !- X,Y,Z ==> Vertex 2 {m}
    54.52872,9.144,0,  !- X,Y,Z ==> Vertex 3 {m}
    54.52872,9.144,3.048;  !- X,Y,Z ==> Vertex 4 {m}

  BuildingSurface:Detailed,
    E2 South Wall (G.W1.I1)-mirror Reversed,  !- Name
    Wall,                    !- Surface Type
    Interior Wall,           !- Construction Name
    Classroom E2 West Perim (G.W1),  !- Zone Name
    ,                        !- Space Name
    Surface,                 !- Outside Boundary Condition
    E2 South Wall (G.W1.I1)-mirror,  !- Outside Boundary Condition Object
    NoSun,                   !- Sun Exposure
    NoWind,                  !- Wind Exposure
    ,                        !- View Factor to Ground
    4,                       !- Number of Vertices
    54.52872,9.144,3.048,  !- X,Y,Z ==> Vertex 1 {m}
    54.52872,9.144,0,  !- X,Y,Z ==> Vertex 2 {m}
    112.97412,9.144,0,  !- X,Y,Z ==> Vertex 3 {m}
    112.97412,9.144,3.048;  !- X,Y,Z ==> Vertex 4 {m}

  BuildingSurface:Detailed,
    E2 South Wall (G.W4.I12)-mirror,  !- Name
    Wall,                    !- Surface Type
    Interior Wall,           !- Construction Name
    E2 South Perim Plnm (G.S5),  !- Zone Name
    ,                        !- Space Name
    Surface,                 !- Outside Boundary Condition
    E2 South Wall (G.W4.I12)-mirror Reversed,  !- Outside Boundary Condition Object
    NoSun,                   !- Sun Exposure
    NoWind,                  !- Wind Exposure
    ,                        !- View Factor to Ground
    4,                       !- Number of Vertices
    112.97412,9.144,4.2672,  !- X,Y,Z ==> Vertex 1 {m}
    112.97412,9.144,3.048,  !- X,Y,Z ==> Vertex 2 {m}
    54.52872,9.144,3.048,  !- X,Y,Z ==> Vertex 3 {m}
    54.52872,9.144,4.2672;  !- X,Y,Z ==> Vertex 4 {m}

  BuildingSurface:Detailed,
    E2 South Wall (G.W4.I12)-mirror Reversed,  !- Name
    Wall,                    !- Surface Type
    Interior Wall,           !- Construction Name
    E2 West Perim Plnm (G.W4),  !- Zone Name
    ,                        !- Space Name
    Surface,                 !- Outside Boundary Condition
    E2 South Wall (G.W4.I12)-mirror,  !- Outside Boundary Condition Object
    NoSun,                   !- Sun Exposure
    NoWind,                  !- Wind Exposure
    ,                        !- View Factor to Ground
    4,                       !- Number of Vertices
    54.52872,9.144,4.2672,  !- X,Y,Z ==> Vertex 1 {m}
    54.52872,9.144,3.048,  !- X,Y,Z ==> Vertex 2 {m}
    112.97412,9.144,3.048,  !- X,Y,Z ==> Vertex 3 {m}
    112.97412,9.144,4.2672;  !- X,Y,Z ==> Vertex 4 {m}

  BuildingSurface:Detailed,
    E2 West Perim Plnm (G.W4) - Wall 090_a,  !- Name
    Wall,                    !- Surface Type
    Interior Wall,           !- Construction Name
    E2 West Perim Plnm (G.W4),  !- Zone Name
    ,                        !- Space Name
    Surface,                 !- Outside Boundary Condition
    E2 West Perim Plnm (G.W4) - Wall 090_a Reversed,  !- Outside Boundary Condition Object
    NoSun,                   !- Sun Exposure
    NoWind,                  !- Wind Exposure
    ,                        !- View Factor to Ground
    4,                       !- Number of Vertices
    112.97412,9.144,4.2672,  !- X,Y,Z ==> Vertex 1 {m}
    112.97412,9.144,3.048,  !- X,Y,Z ==> Vertex 2 {m}
    112.97412,47.338488,3.048,  !- X,Y,Z ==> Vertex 3 {m}
    112.97412,47.338488,4.2672;  !- X,Y,Z ==> Vertex 4 {m}

  BuildingSurface:Detailed,
    E2 West Perim Plnm (G.W4) - Wall 090_a Reversed,  !- Name
    Wall,                    !- Surface Type
    Interior Wall,           !- Construction Name
    Dining E3 South Perim (G.S1),  !- Zone Name
    ,                        !- Space Name
    Surface,                 !- Outside Boundary Condition
    E2 West Perim Plnm (G.W4) - Wall 090_a,  !- Outside Boundary Condition Object
    NoSun,                   !- Sun Exposure
    NoWind,                  !- Wind Exposure
    ,                        !- View Factor to Ground
    4,                       !- Number of Vertices
    112.97412,47.338488,4.2672,  !- X,Y,Z ==> Vertex 1 {m}
    112.97412,47.338488,3.048,  !- X,Y,Z ==> Vertex 2 {m}
    112.97412,9.144,3.048,  !- X,Y,Z ==> Vertex 3 {m}
    112.97412,9.144,4.2672;  !- X,Y,Z ==> Vertex 4 {m}

  BuildingSurface:Detailed,
    E2 West Perim Spc (G.W1) - Wall 090_a,  !- Name
    Wall,                    !- Surface Type
    Interior Wall,           !- Construction Name
    Classroom E2 West Perim (G.W1),  !- Zone Name
    ,                        !- Space Name
    Surface,                 !- Outside Boundary Condition
    E2 West Perim Spc (G.W1) - Wall 090_a Reversed,  !- Outside Boundary Condition Object
    NoSun,                   !- Sun Exposure
    NoWind,                  !- Wind Exposure
    ,                        !- View Factor to Ground
    4,                       !- Number of Vertices
    112.97412,9.144,3.048,  !- X,Y,Z ==> Vertex 1 {m}
    112.97412,9.144,0,  !- X,Y,Z ==> Vertex 2 {m}
    112.97412,47.338488,0,  !- X,Y,Z ==> Vertex 3 {m}
    112.97412,47.338488,3.048;  !- X,Y,Z ==> Vertex 4 {m}

  BuildingSurface:Detailed,
    E2 West Perim Spc (G.W1) - Wall 090_a Reversed,  !- Name
    Wall,                    !- Surface Type
    Interior Wall,           !- Construction Name
    Dining E3 South Perim (G.S1),  !- Zone Name
    ,                        !- Space Name
    Surface,                 !- Outside Boundary Condition
    E2 West Perim Spc (G.W1) - Wall 090_a,  !- Outside Boundary Condition Object
    NoSun,                   !- Sun Exposure
    NoWind,                  !- Wind Exposure
    ,                        !- View Factor to Ground
    4,                       !- Number of Vertices
    112.97412,47.338488,3.048,  !- X,Y,Z ==> Vertex 1 {m}
    112.97412,47.338488,0,  !- X,Y,Z ==> Vertex 2 {m}
    112.97412,9.144,0,  !- X,Y,Z ==> Vertex 3 {m}
    112.97412,9.144,3.048;  !- X,Y,Z ==> Vertex 4 {m}

  BuildingSurface:Detailed,
    E3 East Wall (G.N2.E4),  !- Name
    Wall,                    !- Surface Type
    Exterior Wall,           !- Construction Name
    Kitchen E3 North Perim (G.N2),  !- Zone Name
    ,                        !- Space Name
    Outdoors,                !- Outside Boundary Condition
    ,                        !- Outside Boundary Condition Object
    SunExposed,              !- Sun Exposure
    WindExposed,             !- Wind Exposure
    ,                        !- View Factor to Ground
    4,                       !- Number of Vertices
    136.30656,47.338488,4.2672,  !- X,Y,Z ==> Vertex 1 {m}
    136.30656,47.338488,0,  !- X,Y,Z ==> Vertex 2 {m}
    136.30656,68.15328,0,  !- X,Y,Z ==> Vertex 3 {m}
    136.30656,68.15328,4.2672;  !- X,Y,Z ==> Vertex 4 {m}

  BuildingSurface:Detailed,
    E3 East Wall (G.S1.E2),  !- Name
    Wall,                    !- Surface Type
    Exterior Wall,           !- Construction Name
    Dining E3 South Perim (G.S1),  !- Zone Name
    ,                        !- Space Name
    Outdoors,                !- Outside Boundary Condition
    ,                        !- Outside Boundary Condition Object
    SunExposed,              !- Sun Exposure
    WindExposed,             !- Wind Exposure
    ,                        !- View Factor to Ground
    4,                       !- Number of Vertices
    136.30656,0,4.2672,  !- X,Y,Z ==> Vertex 1 {m}
    136.30656,0,0,  !- X,Y,Z ==> Vertex 2 {m}
    136.30656,47.338488,0,  !- X,Y,Z ==> Vertex 3 {m}
    136.30656,47.338488,4.2672;  !- X,Y,Z ==> Vertex 4 {m}

  BuildingSurface:Detailed,
    E3 Flr (G.N2.U2),        !- Name
    Floor,                   !- Surface Type
    E3 Flr (G.N2.U2) SlabOnOrBelowGradeF073,  !- Construction Name
    Kitchen E3 North Perim (G.N2),  !- Zone Name
    ,                        !- Space Name
    GroundFCfactorMethod,    !- Outside Boundary Condition
    ,                        !- Outside Boundary Condition Object
    NoSun,                   !- Sun Exposure
    NoWind,                  !- Wind Exposure
    ,                        !- View Factor to Ground
    4,                       !- Number of Vertices
    136.30656,68.15328,0,  !- X,Y,Z ==> Vertex 1 {m}
    136.30656,47.338488,0,  !- X,Y,Z ==> Vertex 2 {m}
    112.97412,47.338488,0,  !- X,Y,Z ==> Vertex 3 {m}
    112.97412,68.15328,0;  !- X,Y,Z ==> Vertex 4 {m}

  BuildingSurface:Detailed,
    E3 Flr (G.S1.U1),        !- Name
    Floor,                   !- Surface Type
    E3 Flr (G.S1.U1) SlabOnOrBelowGradeF073,  !- Construction Name
    Dining E3 South Perim (G.S1),  !- Zone Name
    ,                        !- Space Name
    GroundFCfactorMethod,    !- Outside Boundary Condition
    ,                        !- Outside Boundary Condition Object
    NoSun,                   !- Sun Exposure
    NoWind,                  !- Wind Exposure
    ,                        !- View Factor to Ground
    4,                       !- Number of Vertices
    136.30656,47.338488,0,  !- X,Y,Z ==> Vertex 1 {m}
    136.30656,0,0,  !- X,Y,Z ==> Vertex 2 {m}
    112.97412,0,0,  !- X,Y,Z ==> Vertex 3 {m}
    112.97412,47.338488,0;  !- X,Y,Z ==> Vertex 4 {m}

  BuildingSurface:Detailed,
    E3 North Perim Spc (G.N2) - Wall 270_b,  !- Name
    Wall,                    !- Surface Type
    Interior Wall,           !- Construction Name
    Kitchen E3 North Perim (G.N2),  !- Zone Name
    ,                        !- Space Name
    Surface,                 !- Outside Boundary Condition
    E3 North Perim Spc (G.N2) - Wall 270_b Reversed,  !- Outside Boundary Condition Object
    NoSun,                   !- Sun Exposure
    NoWind,                  !- Wind Exposure
    ,                        !- View Factor to Ground
    4,                       !- Number of Vertices
    112.97412,68.15328,3.048,  !- X,Y,Z ==> Vertex 1 {m}
    112.97412,68.15328,0,  !- X,Y,Z ==> Vertex 2 {m}
    112.97412,58.9471008,0,  !- X,Y,Z ==> Vertex 3 {m}
    112.97412,58.9471008,3.048;  !- X,Y,Z ==> Vertex 4 {m}

  BuildingSurface:Detailed,
    E3 North Perim Spc (G.N2) - Wall 270_b Reversed,  !- Name
    Wall,                    !- Surface Type
    Interior Wall,           !- Construction Name
    Classroom E2 North Perim (G.N3),  !- Zone Name
    ,                        !- Space Name
    Surface,                 !- Outside Boundary Condition
    E3 North Perim Spc (G.N2) - Wall 270_b,  !- Outside Boundary Condition Object
    NoSun,                   !- Sun Exposure
    NoWind,                  !- Wind Exposure
    ,                        !- View Factor to Ground
    4,                       !- Number of Vertices
    112.97412,58.9471008,3.048,  !- X,Y,Z ==> Vertex 1 {m}
    112.97412,58.9471008,0,  !- X,Y,Z ==> Vertex 2 {m}
    112.97412,68.15328,0,  !- X,Y,Z ==> Vertex 3 {m}
    112.97412,68.15328,3.048;  !- X,Y,Z ==> Vertex 4 {m}

  BuildingSurface:Detailed,
    E3 North Wall (G.N2.E3), !- Name
    Wall,                    !- Surface Type
    Exterior Wall,           !- Construction Name
    Kitchen E3 North Perim (G.N2),  !- Zone Name
    ,                        !- Space Name
    Outdoors,                !- Outside Boundary Condition
    ,                        !- Outside Boundary Condition Object
    SunExposed,              !- Sun Exposure
    WindExposed,             !- Wind Exposure
    ,                        !- View Factor to Ground
    4,                       !- Number of Vertices
    136.30656,68.15328,4.2672,  !- X,Y,Z ==> Vertex 1 {m}
    136.30656,68.15328,0,  !- X,Y,Z ==> Vertex 2 {m}
    112.97412,68.15328,0,  !- X,Y,Z ==> Vertex 3 {m}
    112.97412,68.15328,4.2672;  !- X,Y,Z ==> Vertex 4 {m}

  BuildingSurface:Detailed,
    E3 North Wall (G.S1.I1)-mirror,  !- Name
    Wall,                    !- Surface Type
    Interior Wall,           !- Construction Name
    Kitchen E3 North Perim (G.N2),  !- Zone Name
    ,                        !- Space Name
    Surface,                 !- Outside Boundary Condition
    E3 North Wall (G.S1.I1)-mirror Reversed,  !- Outside Boundary Condition Object
    NoSun,                   !- Sun Exposure
    NoWind,                  !- Wind Exposure
    ,                        !- View Factor to Ground
    4,                       !- Number of Vertices
    112.97412,47.338488,4.2672,  !- X,Y,Z ==> Vertex 1 {m}
    112.97412,47.338488,0,  !- X,Y,Z ==> Vertex 2 {m}
    136.30656,47.338488,0,  !- X,Y,Z ==> Vertex 3 {m}
    136.30656,47.338488,4.2672;  !- X,Y,Z ==> Vertex 4 {m}

  BuildingSurface:Detailed,
    E3 North Wall (G.S1.I1)-mirror Reversed,  !- Name
    Wall,                    !- Surface Type
    Interior Wall,           !- Construction Name
    Dining E3 South Perim (G.S1),  !- Zone Name
    ,                        !- Space Name
    Surface,                 !- Outside Boundary Condition
    E3 North Wall (G.S1.I1)-mirror,  !- Outside Boundary Condition Object
    NoSun,                   !- Sun Exposure
    NoWind,                  !- Wind Exposure
    ,                        !- View Factor to Ground
    4,                       !- Number of Vertices
    136.30656,47.338488,4.2672,  !- X,Y,Z ==> Vertex 1 {m}
    136.30656,47.338488,0,  !- X,Y,Z ==> Vertex 2 {m}
    112.97412,47.338488,0,  !- X,Y,Z ==> Vertex 3 {m}
    112.97412,47.338488,4.2672;  !- X,Y,Z ==> Vertex 4 {m}

  BuildingSurface:Detailed,
    E3 South Wall (G.S1.E1), !- Name
    Wall,                    !- Surface Type
    Exterior Wall,           !- Construction Name
    Dining E3 South Perim (G.S1),  !- Zone Name
    ,                        !- Space Name
    Outdoors,                !- Outside Boundary Condition
    ,                        !- Outside Boundary Condition Object
    SunExposed,              !- Sun Exposure
    WindExposed,             !- Wind Exposure
    ,                        !- View Factor to Ground
    4,                       !- Number of Vertices
    112.97412,0,4.2672,  !- X,Y,Z ==> Vertex 1 {m}
    112.97412,0,0,  !- X,Y,Z ==> Vertex 2 {m}
    136.30656,0,0,  !- X,Y,Z ==> Vertex 3 {m}
    136.30656,0,4.2672;  !- X,Y,Z ==> Vertex 4 {m}

  BuildingSurface:Detailed,
    E4 Ceiling (G.C5.I21)-mirror,  !- Name
    Floor,                   !- Surface Type
    Interior Floor,          !- Construction Name
    E4 Core Plnm (G.C11),    !- Zone Name
    ,                        !- Space Name
    Surface,                 !- Outside Boundary Condition
    E4 Ceiling (G.C5.I21)-mirror Reversed,  !- Outside Boundary Condition Object
    NoSun,                   !- Sun Exposure
    NoWind,                  !- Wind Exposure
    ,                        !- View Factor to Ground
    4,                       !- Number of Vertices
    20.94588648,59.00928,7.3152,  !- X,Y,Z ==> Vertex 1 {m}
    20.94588648,9.144,7.3152,  !- X,Y,Z ==> Vertex 2 {m}
    9.144,9.144,7.3152,  !- X,Y,Z ==> Vertex 3 {m}
    9.144,59.00928,7.3152;  !- X,Y,Z ==> Vertex 4 {m}

  BuildingSurface:Detailed,
    E4 Ceiling (G.C5.I21)-mirror Reversed,  !- Name
    Ceiling,                 !- Surface Type
    Interior Floor,          !- Construction Name
    Computer E4 Core (G.C5), !- Zone Name
    ,                        !- Space Name
    Surface,                 !- Outside Boundary Condition
    E4 Ceiling (G.C5.I21)-mirror,  !- Outside Boundary Condition Object
    NoSun,                   !- Sun Exposure
    NoWind,                  !- Wind Exposure
    ,                        !- View Factor to Ground
    4,                       !- Number of Vertices
    9.144,59.00928,7.3152,  !- X,Y,Z ==> Vertex 1 {m}
    9.144,9.144,7.3152,  !- X,Y,Z ==> Vertex 2 {m}
    20.94588648,9.144,7.3152,  !- X,Y,Z ==> Vertex 3 {m}
    20.94588648,59.00928,7.3152;  !- X,Y,Z ==> Vertex 4 {m}

  BuildingSurface:Detailed,
    E4 Ceiling (G.C6.I23)-mirror,  !- Name
    Floor,                   !- Surface Type
    Interior Floor,          !- Construction Name
    E4 Core Plnm (G.C12),    !- Zone Name
    ,                        !- Space Name
    Surface,                 !- Outside Boundary Condition
    E4 Ceiling (G.C6.I23)-mirror Reversed,  !- Outside Boundary Condition Object
    NoSun,                   !- Sun Exposure
    NoWind,                  !- Wind Exposure
    ,                        !- View Factor to Ground
    4,                       !- Number of Vertices
    127.16256,59.00928,7.3152,  !- X,Y,Z ==> Vertex 1 {m}
    127.16256,9.144,7.3152,  !- X,Y,Z ==> Vertex 2 {m}
    20.94588648,9.144,7.3152,  !- X,Y,Z ==> Vertex 3 {m}
    20.94588648,59.00928,7.3152;  !- X,Y,Z ==> Vertex 4 {m}

  BuildingSurface:Detailed,
    E4 Ceiling (G.C6.I23)-mirror Reversed,  !- Name
    Ceiling,                 !- Surface Type
    Interior Floor,          !- Construction Name
    Office E4 Core (G.C6),   !- Zone Name
    ,                        !- Space Name
    Surface,                 !- Outside Boundary Condition
    E4 Ceiling (G.C6.I23)-mirror,  !- Outside Boundary Condition Object
    NoSun,                   !- Sun Exposure
    NoWind,                  !- Wind Exposure
    ,                        !- View Factor to Ground
    4,                       !- Number of Vertices
    20.94588648,59.00928,7.3152,  !- X,Y,Z ==> Vertex 1 {m}
    20.94588648,9.144,7.3152,  !- X,Y,Z ==> Vertex 2 {m}
    127.16256,9.144,7.3152,  !- X,Y,Z ==> Vertex 3 {m}
    127.16256,59.00928,7.3152;  !- X,Y,Z ==> Vertex 4 {m}

  BuildingSurface:Detailed,
    E4 Ceiling (G.E2.I9)-mirror,  !- Name
    Floor,                   !- Surface Type
    Interior Floor,          !- Construction Name
    E4 East Perim Plnm (G.E8),  !- Zone Name
    ,                        !- Space Name
    Surface,                 !- Outside Boundary Condition
    E4 Ceiling (G.E2.I9)-mirror Reversed,  !- Outside Boundary Condition Object
    NoSun,                   !- Sun Exposure
    NoWind,                  !- Wind Exposure
    ,                        !- View Factor to Ground
    4,                       !- Number of Vertices
    136.30656,68.15328,7.3152,  !- X,Y,Z ==> Vertex 1 {m}
    136.30656,0,7.3152,  !- X,Y,Z ==> Vertex 2 {m}
    127.16256,9.144,7.3152,  !- X,Y,Z ==> Vertex 3 {m}
    127.16256,59.00928,7.3152;  !- X,Y,Z ==> Vertex 4 {m}

  BuildingSurface:Detailed,
    E4 Ceiling (G.E2.I9)-mirror Reversed,  !- Name
    Ceiling,                 !- Surface Type
    Interior Floor,          !- Construction Name
    Classroom E4 East Perim (G.E2),  !- Zone Name
    ,                        !- Space Name
    Surface,                 !- Outside Boundary Condition
    E4 Ceiling (G.E2.I9)-mirror,  !- Outside Boundary Condition Object
    NoSun,                   !- Sun Exposure
    NoWind,                  !- Wind Exposure
    ,                        !- View Factor to Ground
    4,                       !- Number of Vertices
    136.30656,68.15328,7.3152,  !- X,Y,Z ==> Vertex 1 {m}
    127.16256,59.00928,7.3152,  !- X,Y,Z ==> Vertex 2 {m}
    127.16256,9.144,7.3152,  !- X,Y,Z ==> Vertex 3 {m}
    136.30656,0,7.3152;  !- X,Y,Z ==> Vertex 4 {m}

  BuildingSurface:Detailed,
    E4 Ceiling (G.N3.I15)-mirror,  !- Name
    Floor,                   !- Surface Type
    Interior Floor,          !- Construction Name
    E4 North Perim Plnm (G.N9),  !- Zone Name
    ,                        !- Space Name
    Surface,                 !- Outside Boundary Condition
    E4 Ceiling (G.N3.I15)-mirror Reversed,  !- Outside Boundary Condition Object
    NoSun,                   !- Sun Exposure
    NoWind,                  !- Wind Exposure
    ,                        !- View Factor to Ground
    4,                       !- Number of Vertices
    136.30656,68.15328,7.3152,  !- X,Y,Z ==> Vertex 1 {m}
    127.16256,59.00928,7.3152,  !- X,Y,Z ==> Vertex 2 {m}
    9.144,59.00928,7.3152,  !- X,Y,Z ==> Vertex 3 {m}
    0,68.15328,7.3152;  !- X,Y,Z ==> Vertex 4 {m}

  BuildingSurface:Detailed,
    E4 Ceiling (G.N3.I15)-mirror Reversed,  !- Name
    Ceiling,                 !- Surface Type
    Interior Floor,          !- Construction Name
    Classroom E4 North Perim (G.N3),  !- Zone Name
    ,                        !- Space Name
    Surface,                 !- Outside Boundary Condition
    E4 Ceiling (G.N3.I15)-mirror,  !- Outside Boundary Condition Object
    NoSun,                   !- Sun Exposure
    NoWind,                  !- Wind Exposure
    ,                        !- View Factor to Ground
    4,                       !- Number of Vertices
    0,68.15328,7.3152,  !- X,Y,Z ==> Vertex 1 {m}
    9.144,59.00928,7.3152,  !- X,Y,Z ==> Vertex 2 {m}
    127.16256,59.00928,7.3152,  !- X,Y,Z ==> Vertex 3 {m}
    136.30656,68.15328,7.3152;  !- X,Y,Z ==> Vertex 4 {m}

  BuildingSurface:Detailed,
    E4 Ceiling (G.S1.I6)-mirror,  !- Name
    Floor,                   !- Surface Type
    Interior Floor,          !- Construction Name
    E4 South Perim Plnm (G.S7),  !- Zone Name
    ,                        !- Space Name
    Surface,                 !- Outside Boundary Condition
    E4 Ceiling (G.S1.I6)-mirror Reversed,  !- Outside Boundary Condition Object
    NoSun,                   !- Sun Exposure
    NoWind,                  !- Wind Exposure
    ,                        !- View Factor to Ground
    4,                       !- Number of Vertices
    127.16256,9.144,7.3152,  !- X,Y,Z ==> Vertex 1 {m}
    136.30656,0,7.3152,  !- X,Y,Z ==> Vertex 2 {m}
    0,0,7.3152,  !- X,Y,Z ==> Vertex 3 {m}
    9.144,9.144,7.3152;  !- X,Y,Z ==> Vertex 4 {m}

  BuildingSurface:Detailed,
    E4 Ceiling (G.S1.I6)-mirror Reversed,  !- Name
    Ceiling,                 !- Surface Type
    Interior Floor,          !- Construction Name
    Classroom E4 South Perim (G.S1),  !- Zone Name
    ,                        !- Space Name
    Surface,                 !- Outside Boundary Condition
    E4 Ceiling (G.S1.I6)-mirror,  !- Outside Boundary Condition Object
    NoSun,                   !- Sun Exposure
    NoWind,                  !- Wind Exposure
    ,                        !- View Factor to Ground
    4,                       !- Number of Vertices
    9.144,9.144,7.3152,  !- X,Y,Z ==> Vertex 1 {m}
    0,0,7.3152,  !- X,Y,Z ==> Vertex 2 {m}
    136.30656,0,7.3152,  !- X,Y,Z ==> Vertex 3 {m}
    127.16256,9.144,7.3152;  !- X,Y,Z ==> Vertex 4 {m}

  BuildingSurface:Detailed,
    E4 Ceiling (G.W4.I18)-mirror,  !- Name
    Floor,                   !- Surface Type
    Interior Floor,          !- Construction Name
    E4 West Perim Plnm (G.W10),  !- Zone Name
    ,                        !- Space Name
    Surface,                 !- Outside Boundary Condition
    E4 Ceiling (G.W4.I18)-mirror Reversed,  !- Outside Boundary Condition Object
    NoSun,                   !- Sun Exposure
    NoWind,                  !- Wind Exposure
    ,                        !- View Factor to Ground
    4,                       !- Number of Vertices
    0,68.15328,7.3152,  !- X,Y,Z ==> Vertex 1 {m}
    9.144,59.00928,7.3152,  !- X,Y,Z ==> Vertex 2 {m}
    9.144,9.144,7.3152,  !- X,Y,Z ==> Vertex 3 {m}
    0,0,7.3152;  !- X,Y,Z ==> Vertex 4 {m}

  BuildingSurface:Detailed,
    E4 Ceiling (G.W4.I18)-mirror Reversed,  !- Name
    Ceiling,                 !- Surface Type
    Interior Floor,          !- Construction Name
    Classroom E4 West Perim (G.W4),  !- Zone Name
    ,                        !- Space Name
    Surface,                 !- Outside Boundary Condition
    E4 Ceiling (G.W4.I18)-mirror,  !- Outside Boundary Condition Object
    NoSun,                   !- Sun Exposure
    NoWind,                  !- Wind Exposure
    ,                        !- View Factor to Ground
    4,                       !- Number of Vertices
    0,68.15328,7.3152,  !- X,Y,Z ==> Vertex 1 {m}
    0,0,7.3152,  !- X,Y,Z ==> Vertex 2 {m}
    9.144,9.144,7.3152,  !- X,Y,Z ==> Vertex 3 {m}
    9.144,59.00928,7.3152;  !- X,Y,Z ==> Vertex 4 {m}

  BuildingSurface:Detailed,
    E4 Ceiling (M.C17.I55)-mirror,  !- Name
    Floor,                   !- Surface Type
    Interior Floor,          !- Construction Name
    E4 Core Plnm (M.C23),    !- Zone Name
    ,                        !- Space Name
    Surface,                 !- Outside Boundary Condition
    E4 Ceiling (M.C17.I55)-mirror Reversed,  !- Outside Boundary Condition Object
    NoSun,                   !- Sun Exposure
    NoWind,                  !- Wind Exposure
    ,                        !- View Factor to Ground
    4,                       !- Number of Vertices
    20.94588648,59.00928,11.5824,  !- X,Y,Z ==> Vertex 1 {m}
    20.94588648,9.144,11.5824,  !- X,Y,Z ==> Vertex 2 {m}
    9.144,9.144,11.5824,  !- X,Y,Z ==> Vertex 3 {m}
    9.144,59.00928,11.5824;  !- X,Y,Z ==> Vertex 4 {m}

  BuildingSurface:Detailed,
    E4 Ceiling (M.C17.I55)-mirror Reversed,  !- Name
    Ceiling,                 !- Surface Type
    Interior Floor,          !- Construction Name
    Computer E4 Core (M.C17),!- Zone Name
    ,                        !- Space Name
    Surface,                 !- Outside Boundary Condition
    E4 Ceiling (M.C17.I55)-mirror,  !- Outside Boundary Condition Object
    NoSun,                   !- Sun Exposure
    NoWind,                  !- Wind Exposure
    ,                        !- View Factor to Ground
    4,                       !- Number of Vertices
    9.144,59.00928,11.5824,  !- X,Y,Z ==> Vertex 1 {m}
    9.144,9.144,11.5824,  !- X,Y,Z ==> Vertex 2 {m}
    20.94588648,9.144,11.5824,  !- X,Y,Z ==> Vertex 3 {m}
    20.94588648,59.00928,11.5824;  !- X,Y,Z ==> Vertex 4 {m}

  BuildingSurface:Detailed,
    E4 Ceiling (M.C18.I57)-mirror,  !- Name
    Floor,                   !- Surface Type
    Interior Floor,          !- Construction Name
    E4 Core Plnm (M.C24),    !- Zone Name
    ,                        !- Space Name
    Surface,                 !- Outside Boundary Condition
    E4 Ceiling (M.C18.I57)-mirror Reversed,  !- Outside Boundary Condition Object
    NoSun,                   !- Sun Exposure
    NoWind,                  !- Wind Exposure
    ,                        !- View Factor to Ground
    4,                       !- Number of Vertices
    127.16256,59.00928,11.5824,  !- X,Y,Z ==> Vertex 1 {m}
    127.16256,9.144,11.5824,  !- X,Y,Z ==> Vertex 2 {m}
    20.94588648,9.144,11.5824,  !- X,Y,Z ==> Vertex 3 {m}
    20.94588648,59.00928,11.5824;  !- X,Y,Z ==> Vertex 4 {m}

  BuildingSurface:Detailed,
    E4 Ceiling (M.C18.I57)-mirror Reversed,  !- Name
    Ceiling,                 !- Surface Type
    Interior Floor,          !- Construction Name
    Office E4 Core (M.C18),  !- Zone Name
    ,                        !- Space Name
    Surface,                 !- Outside Boundary Condition
    E4 Ceiling (M.C18.I57)-mirror,  !- Outside Boundary Condition Object
    NoSun,                   !- Sun Exposure
    NoWind,                  !- Wind Exposure
    ,                        !- View Factor to Ground
    4,                       !- Number of Vertices
    20.94588648,59.00928,11.5824,  !- X,Y,Z ==> Vertex 1 {m}
    20.94588648,9.144,11.5824,  !- X,Y,Z ==> Vertex 2 {m}
    127.16256,9.144,11.5824,  !- X,Y,Z ==> Vertex 3 {m}
    127.16256,59.00928,11.5824;  !- X,Y,Z ==> Vertex 4 {m}

  BuildingSurface:Detailed,
    E4 Ceiling (M.E14.I43)-mirror,  !- Name
    Floor,                   !- Surface Type
    Interior Floor,          !- Construction Name
    E4 East Perim Plnm (M.E20),  !- Zone Name
    ,                        !- Space Name
    Surface,                 !- Outside Boundary Condition
    E4 Ceiling (M.E14.I43)-mirror Reversed,  !- Outside Boundary Condition Object
    NoSun,                   !- Sun Exposure
    NoWind,                  !- Wind Exposure
    ,                        !- View Factor to Ground
    4,                       !- Number of Vertices
    136.30656,68.15328,11.5824,  !- X,Y,Z ==> Vertex 1 {m}
    136.30656,0,11.5824,  !- X,Y,Z ==> Vertex 2 {m}
    127.16256,9.144,11.5824,  !- X,Y,Z ==> Vertex 3 {m}
    127.16256,59.00928,11.5824;  !- X,Y,Z ==> Vertex 4 {m}

  BuildingSurface:Detailed,
    E4 Ceiling (M.E14.I43)-mirror Reversed,  !- Name
    Ceiling,                 !- Surface Type
    Interior Floor,          !- Construction Name
    Classroom E4 East Perim (M.E14),  !- Zone Name
    ,                        !- Space Name
    Surface,                 !- Outside Boundary Condition
    E4 Ceiling (M.E14.I43)-mirror,  !- Outside Boundary Condition Object
    NoSun,                   !- Sun Exposure
    NoWind,                  !- Wind Exposure
    ,                        !- View Factor to Ground
    4,                       !- Number of Vertices
    136.30656,68.15328,11.5824,  !- X,Y,Z ==> Vertex 1 {m}
    127.16256,59.00928,11.5824,  !- X,Y,Z ==> Vertex 2 {m}
    127.16256,9.144,11.5824,  !- X,Y,Z ==> Vertex 3 {m}
    136.30656,0,11.5824;  !- X,Y,Z ==> Vertex 4 {m}

  BuildingSurface:Detailed,
    E4 Ceiling (M.N15.I49)-mirror,  !- Name
    Floor,                   !- Surface Type
    Interior Floor,          !- Construction Name
    E4 North Perim Plnm (M.N21),  !- Zone Name
    ,                        !- Space Name
    Surface,                 !- Outside Boundary Condition
    E4 Ceiling (M.N15.I49)-mirror Reversed,  !- Outside Boundary Condition Object
    NoSun,                   !- Sun Exposure
    NoWind,                  !- Wind Exposure
    ,                        !- View Factor to Ground
    4,                       !- Number of Vertices
    136.30656,68.15328,11.5824,  !- X,Y,Z ==> Vertex 1 {m}
    127.16256,59.00928,11.5824,  !- X,Y,Z ==> Vertex 2 {m}
    9.144,59.00928,11.5824,  !- X,Y,Z ==> Vertex 3 {m}
    0,68.15328,11.5824;  !- X,Y,Z ==> Vertex 4 {m}

  BuildingSurface:Detailed,
    E4 Ceiling (M.N15.I49)-mirror Reversed,  !- Name
    Ceiling,                 !- Surface Type
    Interior Floor,          !- Construction Name
    Classroom E4 North Perim (M.N15),  !- Zone Name
    ,                        !- Space Name
    Surface,                 !- Outside Boundary Condition
    E4 Ceiling (M.N15.I49)-mirror,  !- Outside Boundary Condition Object
    NoSun,                   !- Sun Exposure
    NoWind,                  !- Wind Exposure
    ,                        !- View Factor to Ground
    4,                       !- Number of Vertices
    0,68.15328,11.5824,  !- X,Y,Z ==> Vertex 1 {m}
    9.144,59.00928,11.5824,  !- X,Y,Z ==> Vertex 2 {m}
    127.16256,59.00928,11.5824,  !- X,Y,Z ==> Vertex 3 {m}
    136.30656,68.15328,11.5824;  !- X,Y,Z ==> Vertex 4 {m}

  BuildingSurface:Detailed,
    E4 Ceiling (M.S13.I40)-mirror,  !- Name
    Floor,                   !- Surface Type
    Interior Floor,          !- Construction Name
    E4 South Perim Plnm (M.S19),  !- Zone Name
    ,                        !- Space Name
    Surface,                 !- Outside Boundary Condition
    E4 Ceiling (M.S13.I40)-mirror Reversed,  !- Outside Boundary Condition Object
    NoSun,                   !- Sun Exposure
    NoWind,                  !- Wind Exposure
    ,                        !- View Factor to Ground
    4,                       !- Number of Vertices
    127.16256,9.144,11.5824,  !- X,Y,Z ==> Vertex 1 {m}
    136.30656,0,11.5824,  !- X,Y,Z ==> Vertex 2 {m}
    0,0,11.5824,  !- X,Y,Z ==> Vertex 3 {m}
    9.144,9.144,11.5824;  !- X,Y,Z ==> Vertex 4 {m}

  BuildingSurface:Detailed,
    E4 Ceiling (M.S13.I40)-mirror Reversed,  !- Name
    Ceiling,                 !- Surface Type
    Interior Floor,          !- Construction Name
    Classroom E4 South Perim (M.S13),  !- Zone Name
    ,                        !- Space Name
    Surface,                 !- Outside Boundary Condition
    E4 Ceiling (M.S13.I40)-mirror,  !- Outside Boundary Condition Object
    NoSun,                   !- Sun Exposure
    NoWind,                  !- Wind Exposure
    ,                        !- View Factor to Ground
    4,                       !- Number of Vertices
    9.144,9.144,11.5824,  !- X,Y,Z ==> Vertex 1 {m}
    0,0,11.5824,  !- X,Y,Z ==> Vertex 2 {m}
    136.30656,0,11.5824,  !- X,Y,Z ==> Vertex 3 {m}
    127.16256,9.144,11.5824;  !- X,Y,Z ==> Vertex 4 {m}

  BuildingSurface:Detailed,
    E4 Ceiling (M.W16.I52)-mirror,  !- Name
    Floor,                   !- Surface Type
    Interior Floor,          !- Construction Name
    E4 West Perim Plnm (M.W22),  !- Zone Name
    ,                        !- Space Name
    Surface,                 !- Outside Boundary Condition
    E4 Ceiling (M.W16.I52)-mirror Reversed,  !- Outside Boundary Condition Object
    NoSun,                   !- Sun Exposure
    NoWind,                  !- Wind Exposure
    ,                        !- View Factor to Ground
    4,                       !- Number of Vertices
    0,68.15328,11.5824,  !- X,Y,Z ==> Vertex 1 {m}
    9.144,59.00928,11.5824,  !- X,Y,Z ==> Vertex 2 {m}
    9.144,9.144,11.5824,  !- X,Y,Z ==> Vertex 3 {m}
    0,0,11.5824;  !- X,Y,Z ==> Vertex 4 {m}

  BuildingSurface:Detailed,
    E4 Ceiling (M.W16.I52)-mirror Reversed,  !- Name
    Ceiling,                 !- Surface Type
    Interior Floor,          !- Construction Name
    Classroom E4 West Perim (M.W16),  !- Zone Name
    ,                        !- Space Name
    Surface,                 !- Outside Boundary Condition
    E4 Ceiling (M.W16.I52)-mirror,  !- Outside Boundary Condition Object
    NoSun,                   !- Sun Exposure
    NoWind,                  !- Wind Exposure
    ,                        !- View Factor to Ground
    4,                       !- Number of Vertices
    0,68.15328,11.5824,  !- X,Y,Z ==> Vertex 1 {m}
    0,0,11.5824,  !- X,Y,Z ==> Vertex 2 {m}
    9.144,9.144,11.5824,  !- X,Y,Z ==> Vertex 3 {m}
    9.144,59.00928,11.5824;  !- X,Y,Z ==> Vertex 4 {m}

  BuildingSurface:Detailed,
    E4 Ceiling (T.C29.I89)-mirror,  !- Name
    Floor,                   !- Surface Type
    Interior Floor,          !- Construction Name
    E4 Core Plnm (T.C35),    !- Zone Name
    ,                        !- Space Name
    Surface,                 !- Outside Boundary Condition
    E4 Ceiling (T.C29.I89)-mirror Reversed,  !- Outside Boundary Condition Object
    NoSun,                   !- Sun Exposure
    NoWind,                  !- Wind Exposure
    ,                        !- View Factor to Ground
    4,                       !- Number of Vertices
    20.94588648,59.00928,15.8496,  !- X,Y,Z ==> Vertex 1 {m}
    20.94588648,9.144,15.8496,  !- X,Y,Z ==> Vertex 2 {m}
    9.144,9.144,15.8496,  !- X,Y,Z ==> Vertex 3 {m}
    9.144,59.00928,15.8496;  !- X,Y,Z ==> Vertex 4 {m}

  BuildingSurface:Detailed,
    E4 Ceiling (T.C29.I89)-mirror Reversed,  !- Name
    Ceiling,                 !- Surface Type
    Interior Floor,          !- Construction Name
    Computer E4 Core (T.C29),!- Zone Name
    ,                        !- Space Name
    Surface,                 !- Outside Boundary Condition
    E4 Ceiling (T.C29.I89)-mirror,  !- Outside Boundary Condition Object
    NoSun,                   !- Sun Exposure
    NoWind,                  !- Wind Exposure
    ,                        !- View Factor to Ground
    4,                       !- Number of Vertices
    9.144,59.00928,15.8496,  !- X,Y,Z ==> Vertex 1 {m}
    9.144,9.144,15.8496,  !- X,Y,Z ==> Vertex 2 {m}
    20.94588648,9.144,15.8496,  !- X,Y,Z ==> Vertex 3 {m}
    20.94588648,59.00928,15.8496;  !- X,Y,Z ==> Vertex 4 {m}

  BuildingSurface:Detailed,
    E4 Ceiling (T.C30.I91)-mirror,  !- Name
    Floor,                   !- Surface Type
    Interior Floor,          !- Construction Name
    E4 Core Plnm (T.C36),    !- Zone Name
    ,                        !- Space Name
    Surface,                 !- Outside Boundary Condition
    E4 Ceiling (T.C30.I91)-mirror Reversed,  !- Outside Boundary Condition Object
    NoSun,                   !- Sun Exposure
    NoWind,                  !- Wind Exposure
    ,                        !- View Factor to Ground
    4,                       !- Number of Vertices
    127.16256,59.00928,15.8496,  !- X,Y,Z ==> Vertex 1 {m}
    127.16256,9.144,15.8496,  !- X,Y,Z ==> Vertex 2 {m}
    20.94588648,9.144,15.8496,  !- X,Y,Z ==> Vertex 3 {m}
    20.94588648,59.00928,15.8496;  !- X,Y,Z ==> Vertex 4 {m}

  BuildingSurface:Detailed,
    E4 Ceiling (T.C30.I91)-mirror Reversed,  !- Name
    Ceiling,                 !- Surface Type
    Interior Floor,          !- Construction Name
    Office E4 Core (T.C30),  !- Zone Name
    ,                        !- Space Name
    Surface,                 !- Outside Boundary Condition
    E4 Ceiling (T.C30.I91)-mirror,  !- Outside Boundary Condition Object
    NoSun,                   !- Sun Exposure
    NoWind,                  !- Wind Exposure
    ,                        !- View Factor to Ground
    4,                       !- Number of Vertices
    20.94588648,59.00928,15.8496,  !- X,Y,Z ==> Vertex 1 {m}
    20.94588648,9.144,15.8496,  !- X,Y,Z ==> Vertex 2 {m}
    127.16256,9.144,15.8496,  !- X,Y,Z ==> Vertex 3 {m}
    127.16256,59.00928,15.8496;  !- X,Y,Z ==> Vertex 4 {m}

  BuildingSurface:Detailed,
    E4 Ceiling (T.E26.I77)-mirror,  !- Name
    Floor,                   !- Surface Type
    Interior Floor,          !- Construction Name
    E4 East Perim Plnm (T.E32),  !- Zone Name
    ,                        !- Space Name
    Surface,                 !- Outside Boundary Condition
    E4 Ceiling (T.E26.I77)-mirror Reversed,  !- Outside Boundary Condition Object
    NoSun,                   !- Sun Exposure
    NoWind,                  !- Wind Exposure
    ,                        !- View Factor to Ground
    4,                       !- Number of Vertices
    136.30656,68.15328,15.8496,  !- X,Y,Z ==> Vertex 1 {m}
    136.30656,0,15.8496,  !- X,Y,Z ==> Vertex 2 {m}
    127.16256,9.144,15.8496,  !- X,Y,Z ==> Vertex 3 {m}
    127.16256,59.00928,15.8496;  !- X,Y,Z ==> Vertex 4 {m}

  BuildingSurface:Detailed,
    E4 Ceiling (T.E26.I77)-mirror Reversed,  !- Name
    Ceiling,                 !- Surface Type
    Interior Floor,          !- Construction Name
    Classroom E4 East Perim (T.E26),  !- Zone Name
    ,                        !- Space Name
    Surface,                 !- Outside Boundary Condition
    E4 Ceiling (T.E26.I77)-mirror,  !- Outside Boundary Condition Object
    NoSun,                   !- Sun Exposure
    NoWind,                  !- Wind Exposure
    ,                        !- View Factor to Ground
    4,                       !- Number of Vertices
    136.30656,68.15328,15.8496,  !- X,Y,Z ==> Vertex 1 {m}
    127.16256,59.00928,15.8496,  !- X,Y,Z ==> Vertex 2 {m}
    127.16256,9.144,15.8496,  !- X,Y,Z ==> Vertex 3 {m}
    136.30656,0,15.8496;  !- X,Y,Z ==> Vertex 4 {m}

  BuildingSurface:Detailed,
    E4 Ceiling (T.N27.I83)-mirror,  !- Name
    Floor,                   !- Surface Type
    Interior Floor,          !- Construction Name
    E4 North Perim Plnm (T.N33),  !- Zone Name
    ,                        !- Space Name
    Surface,                 !- Outside Boundary Condition
    E4 Ceiling (T.N27.I83)-mirror Reversed,  !- Outside Boundary Condition Object
    NoSun,                   !- Sun Exposure
    NoWind,                  !- Wind Exposure
    ,                        !- View Factor to Ground
    4,                       !- Number of Vertices
    136.30656,68.15328,15.8496,  !- X,Y,Z ==> Vertex 1 {m}
    127.16256,59.00928,15.8496,  !- X,Y,Z ==> Vertex 2 {m}
    9.144,59.00928,15.8496,  !- X,Y,Z ==> Vertex 3 {m}
    0,68.15328,15.8496;  !- X,Y,Z ==> Vertex 4 {m}

  BuildingSurface:Detailed,
    E4 Ceiling (T.N27.I83)-mirror Reversed,  !- Name
    Ceiling,                 !- Surface Type
    Interior Floor,          !- Construction Name
    Classroom E4 North Perim (T.N27),  !- Zone Name
    ,                        !- Space Name
    Surface,                 !- Outside Boundary Condition
    E4 Ceiling (T.N27.I83)-mirror,  !- Outside Boundary Condition Object
    NoSun,                   !- Sun Exposure
    NoWind,                  !- Wind Exposure
    ,                        !- View Factor to Ground
    4,                       !- Number of Vertices
    0,68.15328,15.8496,  !- X,Y,Z ==> Vertex 1 {m}
    9.144,59.00928,15.8496,  !- X,Y,Z ==> Vertex 2 {m}
    127.16256,59.00928,15.8496,  !- X,Y,Z ==> Vertex 3 {m}
    136.30656,68.15328,15.8496;  !- X,Y,Z ==> Vertex 4 {m}

  BuildingSurface:Detailed,
    E4 Ceiling (T.S25.I74)-mirror,  !- Name
    Floor,                   !- Surface Type
    Interior Floor,          !- Construction Name
    E4 South Perim Plnm (T.S31),  !- Zone Name
    ,                        !- Space Name
    Surface,                 !- Outside Boundary Condition
    E4 Ceiling (T.S25.I74)-mirror Reversed,  !- Outside Boundary Condition Object
    NoSun,                   !- Sun Exposure
    NoWind,                  !- Wind Exposure
    ,                        !- View Factor to Ground
    4,                       !- Number of Vertices
    127.16256,9.144,15.8496,  !- X,Y,Z ==> Vertex 1 {m}
    136.30656,0,15.8496,  !- X,Y,Z ==> Vertex 2 {m}
    0,0,15.8496,  !- X,Y,Z ==> Vertex 3 {m}
    9.144,9.144,15.8496;  !- X,Y,Z ==> Vertex 4 {m}

  BuildingSurface:Detailed,
    E4 Ceiling (T.S25.I74)-mirror Reversed,  !- Name
    Ceiling,                 !- Surface Type
    Interior Floor,          !- Construction Name
    Classroom E4 South Perim (T.S25),  !- Zone Name
    ,                        !- Space Name
    Surface,                 !- Outside Boundary Condition
    E4 Ceiling (T.S25.I74)-mirror,  !- Outside Boundary Condition Object
    NoSun,                   !- Sun Exposure
    NoWind,                  !- Wind Exposure
    ,                        !- View Factor to Ground
    4,                       !- Number of Vertices
    9.144,9.144,15.8496,  !- X,Y,Z ==> Vertex 1 {m}
    0,0,15.8496,  !- X,Y,Z ==> Vertex 2 {m}
    136.30656,0,15.8496,  !- X,Y,Z ==> Vertex 3 {m}
    127.16256,9.144,15.8496;  !- X,Y,Z ==> Vertex 4 {m}

  BuildingSurface:Detailed,
    E4 Ceiling (T.W28.I86)-mirror,  !- Name
    Floor,                   !- Surface Type
    Interior Floor,          !- Construction Name
    E4 West Perim Plnm (T.W34),  !- Zone Name
    ,                        !- Space Name
    Surface,                 !- Outside Boundary Condition
    E4 Ceiling (T.W28.I86)-mirror Reversed,  !- Outside Boundary Condition Object
    NoSun,                   !- Sun Exposure
    NoWind,                  !- Wind Exposure
    ,                        !- View Factor to Ground
    4,                       !- Number of Vertices
    0,68.15328,15.8496,  !- X,Y,Z ==> Vertex 1 {m}
    9.144,59.00928,15.8496,  !- X,Y,Z ==> Vertex 2 {m}
    9.144,9.144,15.8496,  !- X,Y,Z ==> Vertex 3 {m}
    0,0,15.8496;  !- X,Y,Z ==> Vertex 4 {m}

  BuildingSurface:Detailed,
    E4 Ceiling (T.W28.I86)-mirror Reversed,  !- Name
    Ceiling,                 !- Surface Type
    Interior Floor,          !- Construction Name
    Classroom E4 West Perim (T.W28),  !- Zone Name
    ,                        !- Space Name
    Surface,                 !- Outside Boundary Condition
    E4 Ceiling (T.W28.I86)-mirror,  !- Outside Boundary Condition Object
    NoSun,                   !- Sun Exposure
    NoWind,                  !- Wind Exposure
    ,                        !- View Factor to Ground
    4,                       !- Number of Vertices
    0,68.15328,15.8496,  !- X,Y,Z ==> Vertex 1 {m}
    0,0,15.8496,  !- X,Y,Z ==> Vertex 2 {m}
    9.144,9.144,15.8496,  !- X,Y,Z ==> Vertex 3 {m}
    9.144,59.00928,15.8496;  !- X,Y,Z ==> Vertex 4 {m}

  BuildingSurface:Detailed,
    E4 Core Spc (G.C6) - Floor_a,  !- Name
    Floor,                   !- Surface Type
    Interior Floor,          !- Construction Name
    Office E4 Core (G.C6),   !- Zone Name
    ,                        !- Space Name
    Surface,                 !- Outside Boundary Condition
    E4 Core Spc (G.C6) - Floor_a Reversed,  !- Outside Boundary Condition Object
    NoSun,                   !- Sun Exposure
    NoWind,                  !- Wind Exposure
    ,                        !- View Factor to Ground
    4,                       !- Number of Vertices
    112.97412,59.00928,4.2672,  !- X,Y,Z ==> Vertex 1 {m}
    112.97412,9.144,4.2672,  !- X,Y,Z ==> Vertex 2 {m}
    54.52872,9.144,4.2672,  !- X,Y,Z ==> Vertex 3 {m}
    54.52872,59.00928,4.2672;  !- X,Y,Z ==> Vertex 4 {m}

  BuildingSurface:Detailed,
    E4 Core Spc (G.C6) - Floor_a Reversed,  !- Name
    Ceiling,                 !- Surface Type
    Radiant Interior Ceiling,!- Construction Name
    E2 West Perim Plnm (G.W4),  !- Zone Name
    ,                        !- Space Name
    Surface,                 !- Outside Boundary Condition
    E4 Core Spc (G.C6) - Floor_a,  !- Outside Boundary Condition Object
    NoSun,                   !- Sun Exposure
    NoWind,                  !- Wind Exposure
    ,                        !- View Factor to Ground
    4,                       !- Number of Vertices
    54.52872,59.00928,4.2672,  !- X,Y,Z ==> Vertex 1 {m}
    54.52872,9.144,4.2672,  !- X,Y,Z ==> Vertex 2 {m}
    112.97412,9.144,4.2672,  !- X,Y,Z ==> Vertex 3 {m}
    112.97412,59.00928,4.2672;  !- X,Y,Z ==> Vertex 4 {m}

  BuildingSurface:Detailed,
    E4 Core Spc (G.C6) - Floor_b,  !- Name
    Floor,                   !- Surface Type
    Interior Floor,          !- Construction Name
    Office E4 Core (G.C6),   !- Zone Name
    ,                        !- Space Name
    Surface,                 !- Outside Boundary Condition
    E4 Core Spc (G.C6) - Floor_b Reversed,  !- Outside Boundary Condition Object
    NoSun,                   !- Sun Exposure
    NoWind,                  !- Wind Exposure
    ,                        !- View Factor to Ground
    4,                       !- Number of Vertices
    127.16256,47.338488,4.2672,  !- X,Y,Z ==> Vertex 1 {m}
    127.16256,9.144,4.2672,  !- X,Y,Z ==> Vertex 2 {m}
    112.97412,9.144,4.2672,  !- X,Y,Z ==> Vertex 3 {m}
    112.97412,47.338488,4.2672;  !- X,Y,Z ==> Vertex 4 {m}

  BuildingSurface:Detailed,
    E4 Core Spc (G.C6) - Floor_b Reversed,  !- Name
    Ceiling,                 !- Surface Type
    Radiant Interior Ceiling,!- Construction Name
    Dining E3 South Perim (G.S1),  !- Zone Name
    ,                        !- Space Name
    Surface,                 !- Outside Boundary Condition
    E4 Core Spc (G.C6) - Floor_b,  !- Outside Boundary Condition Object
    NoSun,                   !- Sun Exposure
    NoWind,                  !- Wind Exposure
    0,                       !- View Factor to Ground
    4,                       !- Number of Vertices
    112.97412,47.338488,4.2672,  !- X,Y,Z ==> Vertex 1 {m}
    112.97412,9.144,4.2672,  !- X,Y,Z ==> Vertex 2 {m}
    127.16256,9.144,4.2672,  !- X,Y,Z ==> Vertex 3 {m}
    127.16256,47.338488,4.2672;  !- X,Y,Z ==> Vertex 4 {m}

  BuildingSurface:Detailed,
    E4 Core Spc (G.C6) - Floor_c,  !- Name
    Floor,                   !- Surface Type
    Interior Floor,          !- Construction Name
    Office E4 Core (G.C6),   !- Zone Name
    ,                        !- Space Name
    Surface,                 !- Outside Boundary Condition
    E4 Core Spc (G.C6) - Floor_c Reversed,  !- Outside Boundary Condition Object
    NoSun,                   !- Sun Exposure
    NoWind,                  !- Wind Exposure
    ,                        !- View Factor to Ground
    4,                       !- Number of Vertices
    127.16256,59.00928,4.2672,  !- X,Y,Z ==> Vertex 1 {m}
    127.16256,47.338488,4.2672,  !- X,Y,Z ==> Vertex 2 {m}
    112.97412,47.338488,4.2672,  !- X,Y,Z ==> Vertex 3 {m}
    112.97412,59.00928,4.2672;  !- X,Y,Z ==> Vertex 4 {m}

  BuildingSurface:Detailed,
    E4 Core Spc (G.C6) - Floor_c Reversed,  !- Name
    Ceiling,                 !- Surface Type
    Radiant Interior Ceiling,!- Construction Name
    Kitchen E3 North Perim (G.N2),  !- Zone Name
    ,                        !- Space Name
    Surface,                 !- Outside Boundary Condition
    E4 Core Spc (G.C6) - Floor_c,  !- Outside Boundary Condition Object
    NoSun,                   !- Sun Exposure
    NoWind,                  !- Wind Exposure
    ,                        !- View Factor to Ground
    4,                       !- Number of Vertices
    112.97412,59.00928,4.2672,  !- X,Y,Z ==> Vertex 1 {m}
    112.97412,47.338488,4.2672,  !- X,Y,Z ==> Vertex 2 {m}
    127.16256,47.338488,4.2672,  !- X,Y,Z ==> Vertex 3 {m}
    127.16256,59.00928,4.2672;  !- X,Y,Z ==> Vertex 4 {m}

  BuildingSurface:Detailed,
    E4 East Perim Spc (G.E2) - Floor_a,  !- Name
    Floor,                   !- Surface Type
    Interior Floor,          !- Construction Name
    Classroom E4 East Perim (G.E2),  !- Zone Name
    ,                        !- Space Name
    Surface,                 !- Outside Boundary Condition
    E4 East Perim Spc (G.E2) - Floor_a Reversed,  !- Outside Boundary Condition Object
    NoSun,                   !- Sun Exposure
    NoWind,                  !- Wind Exposure
    ,                        !- View Factor to Ground
    4,                       !- Number of Vertices
    136.30656,68.15328,4.2672,  !- X,Y,Z ==> Vertex 1 {m}
    136.30656,47.338488,4.2672,  !- X,Y,Z ==> Vertex 2 {m}
    127.16256,47.338488,4.2672,  !- X,Y,Z ==> Vertex 3 {m}
    127.16256,59.00928,4.2672;  !- X,Y,Z ==> Vertex 4 {m}

  BuildingSurface:Detailed,
    E4 East Perim Spc (G.E2) - Floor_a Reversed,  !- Name
    Ceiling,                 !- Surface Type
    Radiant Interior Ceiling,!- Construction Name
    Kitchen E3 North Perim (G.N2),  !- Zone Name
    ,                        !- Space Name
    Surface,                 !- Outside Boundary Condition
    E4 East Perim Spc (G.E2) - Floor_a,  !- Outside Boundary Condition Object
    NoSun,                   !- Sun Exposure
    NoWind,                  !- Wind Exposure
    ,                        !- View Factor to Ground
    4,                       !- Number of Vertices
    136.30656,68.15328,4.2672,  !- X,Y,Z ==> Vertex 1 {m}
    127.16256,59.00928,4.2672,  !- X,Y,Z ==> Vertex 2 {m}
    127.16256,47.338488,4.2672,  !- X,Y,Z ==> Vertex 3 {m}
    136.30656,47.338488,4.2672;  !- X,Y,Z ==> Vertex 4 {m}

  BuildingSurface:Detailed,
    E4 East Wall (G.C11.I34),!- Name
    Wall,                    !- Surface Type
    Interior Wall,           !- Construction Name
    E4 Core Plnm (G.C11),    !- Zone Name
    ,                        !- Space Name
    Surface,                 !- Outside Boundary Condition
    E4 East Wall (G.C11.I34) Reversed,  !- Outside Boundary Condition Object
    NoSun,                   !- Sun Exposure
    NoWind,                  !- Wind Exposure
    ,                        !- View Factor to Ground
    4,                       !- Number of Vertices
    20.94588648,9.144,8.5344,  !- X,Y,Z ==> Vertex 1 {m}
    20.94588648,9.144,7.3152,  !- X,Y,Z ==> Vertex 2 {m}
    20.94588648,59.00928,7.3152,  !- X,Y,Z ==> Vertex 3 {m}
    20.94588648,59.00928,8.5344;  !- X,Y,Z ==> Vertex 4 {m}

  BuildingSurface:Detailed,
    E4 East Wall (G.C11.I34) Reversed,  !- Name
    Wall,                    !- Surface Type
    Interior Wall,           !- Construction Name
    E4 Core Plnm (G.C12),    !- Zone Name
    ,                        !- Space Name
    Surface,                 !- Outside Boundary Condition
    E4 East Wall (G.C11.I34),!- Outside Boundary Condition Object
    NoSun,                   !- Sun Exposure
    NoWind,                  !- Wind Exposure
    ,                        !- View Factor to Ground
    4,                       !- Number of Vertices
    20.94588648,59.00928,8.5344,  !- X,Y,Z ==> Vertex 1 {m}
    20.94588648,59.00928,7.3152,  !- X,Y,Z ==> Vertex 2 {m}
    20.94588648,9.144,7.3152,  !- X,Y,Z ==> Vertex 3 {m}
    20.94588648,9.144,8.5344;  !- X,Y,Z ==> Vertex 4 {m}

  BuildingSurface:Detailed,
    E4 East Wall (G.C5.I20), !- Name
    Wall,                    !- Surface Type
    Interior Wall,           !- Construction Name
    Computer E4 Core (G.C5), !- Zone Name
    ,                        !- Space Name
    Surface,                 !- Outside Boundary Condition
    E4 East Wall (G.C5.I20) Reversed,  !- Outside Boundary Condition Object
    NoSun,                   !- Sun Exposure
    NoWind,                  !- Wind Exposure
    ,                        !- View Factor to Ground
    4,                       !- Number of Vertices
    20.94588648,9.144,7.3152,  !- X,Y,Z ==> Vertex 1 {m}
    20.94588648,9.144,4.2672,  !- X,Y,Z ==> Vertex 2 {m}
    20.94588648,59.00928,4.2672,  !- X,Y,Z ==> Vertex 3 {m}
    20.94588648,59.00928,7.3152;  !- X,Y,Z ==> Vertex 4 {m}

  BuildingSurface:Detailed,
    E4 East Wall (G.C5.I20) Reversed,  !- Name
    Wall,                    !- Surface Type
    Interior Wall,           !- Construction Name
    Office E4 Core (G.C6),   !- Zone Name
    ,                        !- Space Name
    Surface,                 !- Outside Boundary Condition
    E4 East Wall (G.C5.I20), !- Outside Boundary Condition Object
    NoSun,                   !- Sun Exposure
    NoWind,                  !- Wind Exposure
    ,                        !- View Factor to Ground
    4,                       !- Number of Vertices
    20.94588648,59.00928,7.3152,  !- X,Y,Z ==> Vertex 1 {m}
    20.94588648,59.00928,4.2672,  !- X,Y,Z ==> Vertex 2 {m}
    20.94588648,9.144,4.2672,  !- X,Y,Z ==> Vertex 3 {m}
    20.94588648,9.144,7.3152;  !- X,Y,Z ==> Vertex 4 {m}

  BuildingSurface:Detailed,
    E4 East Wall (G.E2.E2),  !- Name
    Wall,                    !- Surface Type
    Exterior Wall,           !- Construction Name
    Classroom E4 East Perim (G.E2),  !- Zone Name
    ,                        !- Space Name
    Outdoors,                !- Outside Boundary Condition
    ,                        !- Outside Boundary Condition Object
    SunExposed,              !- Sun Exposure
    WindExposed,             !- Wind Exposure
    ,                        !- View Factor to Ground
    4,                       !- Number of Vertices
    136.30656,0,7.3152,  !- X,Y,Z ==> Vertex 1 {m}
    136.30656,0,4.2672,  !- X,Y,Z ==> Vertex 2 {m}
    136.30656,68.15328,4.2672,  !- X,Y,Z ==> Vertex 3 {m}
    136.30656,68.15328,7.3152;  !- X,Y,Z ==> Vertex 4 {m}

  BuildingSurface:Detailed,
    E4 East Wall (G.E8.E6),  !- Name
    Wall,                    !- Surface Type
    Exterior Wall,           !- Construction Name
    E4 East Perim Plnm (G.E8),  !- Zone Name
    ,                        !- Space Name
    Outdoors,                !- Outside Boundary Condition
    ,                        !- Outside Boundary Condition Object
    SunExposed,              !- Sun Exposure
    WindExposed,             !- Wind Exposure
    ,                        !- View Factor to Ground
    4,                       !- Number of Vertices
    136.30656,0,8.5344,  !- X,Y,Z ==> Vertex 1 {m}
    136.30656,0,7.3152,  !- X,Y,Z ==> Vertex 2 {m}
    136.30656,68.15328,7.3152,  !- X,Y,Z ==> Vertex 3 {m}
    136.30656,68.15328,8.5344;  !- X,Y,Z ==> Vertex 4 {m}

  BuildingSurface:Detailed,
    E4 East Wall (G.W10.I33)-mirror,  !- Name
    Wall,                    !- Surface Type
    Interior Wall,           !- Construction Name
    E4 Core Plnm (G.C11),    !- Zone Name
    ,                        !- Space Name
    Surface,                 !- Outside Boundary Condition
    E4 East Wall (G.W10.I33)-mirror Reversed,  !- Outside Boundary Condition Object
    NoSun,                   !- Sun Exposure
    NoWind,                  !- Wind Exposure
    ,                        !- View Factor to Ground
    4,                       !- Number of Vertices
    9.144,59.00928,8.5344,  !- X,Y,Z ==> Vertex 1 {m}
    9.144,59.00928,7.3152,  !- X,Y,Z ==> Vertex 2 {m}
    9.144,9.144,7.3152,  !- X,Y,Z ==> Vertex 3 {m}
    9.144,9.144,8.5344;  !- X,Y,Z ==> Vertex 4 {m}

  BuildingSurface:Detailed,
    E4 East Wall (G.W10.I33)-mirror Reversed,  !- Name
    Wall,                    !- Surface Type
    Interior Wall,           !- Construction Name
    E4 West Perim Plnm (G.W10),  !- Zone Name
    ,                        !- Space Name
    Surface,                 !- Outside Boundary Condition
    E4 East Wall (G.W10.I33)-mirror,  !- Outside Boundary Condition Object
    NoSun,                   !- Sun Exposure
    NoWind,                  !- Wind Exposure
    ,                        !- View Factor to Ground
    4,                       !- Number of Vertices
    9.144,9.144,8.5344,  !- X,Y,Z ==> Vertex 1 {m}
    9.144,9.144,7.3152,  !- X,Y,Z ==> Vertex 2 {m}
    9.144,59.00928,7.3152,  !- X,Y,Z ==> Vertex 3 {m}
    9.144,59.00928,8.5344;  !- X,Y,Z ==> Vertex 4 {m}

  BuildingSurface:Detailed,
    E4 East Wall (G.W4.I17)-mirror,  !- Name
    Wall,                    !- Surface Type
    Interior Wall,           !- Construction Name
    Computer E4 Core (G.C5), !- Zone Name
    ,                        !- Space Name
    Surface,                 !- Outside Boundary Condition
    E4 East Wall (G.W4.I17)-mirror Reversed,  !- Outside Boundary Condition Object
    NoSun,                   !- Sun Exposure
    NoWind,                  !- Wind Exposure
    ,                        !- View Factor to Ground
    4,                       !- Number of Vertices
    9.144,59.00928,7.3152,  !- X,Y,Z ==> Vertex 1 {m}
    9.144,59.00928,4.2672,  !- X,Y,Z ==> Vertex 2 {m}
    9.144,9.144,4.2672,  !- X,Y,Z ==> Vertex 3 {m}
    9.144,9.144,7.3152;  !- X,Y,Z ==> Vertex 4 {m}

  BuildingSurface:Detailed,
    E4 East Wall (G.W4.I17)-mirror Reversed,  !- Name
    Wall,                    !- Surface Type
    Interior Wall,           !- Construction Name
    Classroom E4 West Perim (G.W4),  !- Zone Name
    ,                        !- Space Name
    Surface,                 !- Outside Boundary Condition
    E4 East Wall (G.W4.I17)-mirror,  !- Outside Boundary Condition Object
    NoSun,                   !- Sun Exposure
    NoWind,                  !- Wind Exposure
    ,                        !- View Factor to Ground
    4,                       !- Number of Vertices
    9.144,9.144,7.3152,  !- X,Y,Z ==> Vertex 1 {m}
    9.144,9.144,4.2672,  !- X,Y,Z ==> Vertex 2 {m}
    9.144,59.00928,4.2672,  !- X,Y,Z ==> Vertex 3 {m}
    9.144,59.00928,7.3152;  !- X,Y,Z ==> Vertex 4 {m}

  BuildingSurface:Detailed,
    E4 East Wall (M.C17.I54),!- Name
    Wall,                    !- Surface Type
    Interior Wall,           !- Construction Name
    Computer E4 Core (M.C17),!- Zone Name
    ,                        !- Space Name
    Surface,                 !- Outside Boundary Condition
    E4 East Wall (M.C17.I54) Reversed,  !- Outside Boundary Condition Object
    NoSun,                   !- Sun Exposure
    NoWind,                  !- Wind Exposure
    ,                        !- View Factor to Ground
    4,                       !- Number of Vertices
    20.94588648,9.144,11.5824,  !- X,Y,Z ==> Vertex 1 {m}
    20.94588648,9.144,8.5344,  !- X,Y,Z ==> Vertex 2 {m}
    20.94588648,59.00928,8.5344,  !- X,Y,Z ==> Vertex 3 {m}
    20.94588648,59.00928,11.5824;  !- X,Y,Z ==> Vertex 4 {m}

  BuildingSurface:Detailed,
    E4 East Wall (M.C17.I54) Reversed,  !- Name
    Wall,                    !- Surface Type
    Interior Wall,           !- Construction Name
    Office E4 Core (M.C18),  !- Zone Name
    ,                        !- Space Name
    Surface,                 !- Outside Boundary Condition
    E4 East Wall (M.C17.I54),!- Outside Boundary Condition Object
    NoSun,                   !- Sun Exposure
    NoWind,                  !- Wind Exposure
    ,                        !- View Factor to Ground
    4,                       !- Number of Vertices
    20.94588648,59.00928,11.5824,  !- X,Y,Z ==> Vertex 1 {m}
    20.94588648,59.00928,8.5344,  !- X,Y,Z ==> Vertex 2 {m}
    20.94588648,9.144,8.5344,  !- X,Y,Z ==> Vertex 3 {m}
    20.94588648,9.144,11.5824;  !- X,Y,Z ==> Vertex 4 {m}

  BuildingSurface:Detailed,
    E4 East Wall (M.C23.I68),!- Name
    Wall,                    !- Surface Type
    Interior Wall,           !- Construction Name
    E4 Core Plnm (M.C23),    !- Zone Name
    ,                        !- Space Name
    Surface,                 !- Outside Boundary Condition
    E4 East Wall (M.C23.I68) Reversed,  !- Outside Boundary Condition Object
    NoSun,                   !- Sun Exposure
    NoWind,                  !- Wind Exposure
    ,                        !- View Factor to Ground
    4,                       !- Number of Vertices
    20.94588648,9.144,12.8016,  !- X,Y,Z ==> Vertex 1 {m}
    20.94588648,9.144,11.5824,  !- X,Y,Z ==> Vertex 2 {m}
    20.94588648,59.00928,11.5824,  !- X,Y,Z ==> Vertex 3 {m}
    20.94588648,59.00928,12.8016;  !- X,Y,Z ==> Vertex 4 {m}

  BuildingSurface:Detailed,
    E4 East Wall (M.C23.I68) Reversed,  !- Name
    Wall,                    !- Surface Type
    Interior Wall,           !- Construction Name
    E4 Core Plnm (M.C24),    !- Zone Name
    ,                        !- Space Name
    Surface,                 !- Outside Boundary Condition
    E4 East Wall (M.C23.I68),!- Outside Boundary Condition Object
    NoSun,                   !- Sun Exposure
    NoWind,                  !- Wind Exposure
    ,                        !- View Factor to Ground
    4,                       !- Number of Vertices
    20.94588648,59.00928,12.8016,  !- X,Y,Z ==> Vertex 1 {m}
    20.94588648,59.00928,11.5824,  !- X,Y,Z ==> Vertex 2 {m}
    20.94588648,9.144,11.5824,  !- X,Y,Z ==> Vertex 3 {m}
    20.94588648,9.144,12.8016;  !- X,Y,Z ==> Vertex 4 {m}

  BuildingSurface:Detailed,
    E4 East Wall (M.E14.E10),!- Name
    Wall,                    !- Surface Type
    Exterior Wall,           !- Construction Name
    Classroom E4 East Perim (M.E14),  !- Zone Name
    ,                        !- Space Name
    Outdoors,                !- Outside Boundary Condition
    ,                        !- Outside Boundary Condition Object
    SunExposed,              !- Sun Exposure
    WindExposed,             !- Wind Exposure
    ,                        !- View Factor to Ground
    4,                       !- Number of Vertices
    136.30656,0,11.5824,  !- X,Y,Z ==> Vertex 1 {m}
    136.30656,0,8.5344,  !- X,Y,Z ==> Vertex 2 {m}
    136.30656,68.15328,8.5344,  !- X,Y,Z ==> Vertex 3 {m}
    136.30656,68.15328,11.5824;  !- X,Y,Z ==> Vertex 4 {m}

  BuildingSurface:Detailed,
    E4 East Wall (M.E20.E14),!- Name
    Wall,                    !- Surface Type
    Exterior Wall,           !- Construction Name
    E4 East Perim Plnm (M.E20),  !- Zone Name
    ,                        !- Space Name
    Outdoors,                !- Outside Boundary Condition
    ,                        !- Outside Boundary Condition Object
    SunExposed,              !- Sun Exposure
    WindExposed,             !- Wind Exposure
    ,                        !- View Factor to Ground
    4,                       !- Number of Vertices
    136.30656,0,12.8016,  !- X,Y,Z ==> Vertex 1 {m}
    136.30656,0,11.5824,  !- X,Y,Z ==> Vertex 2 {m}
    136.30656,68.15328,11.5824,  !- X,Y,Z ==> Vertex 3 {m}
    136.30656,68.15328,12.8016;  !- X,Y,Z ==> Vertex 4 {m}

  BuildingSurface:Detailed,
    E4 East Wall (M.W16.I51)-mirror,  !- Name
    Wall,                    !- Surface Type
    Interior Wall,           !- Construction Name
    Computer E4 Core (M.C17),!- Zone Name
    ,                        !- Space Name
    Surface,                 !- Outside Boundary Condition
    E4 East Wall (M.W16.I51)-mirror Reversed,  !- Outside Boundary Condition Object
    NoSun,                   !- Sun Exposure
    NoWind,                  !- Wind Exposure
    ,                        !- View Factor to Ground
    4,                       !- Number of Vertices
    9.144,59.00928,11.5824,  !- X,Y,Z ==> Vertex 1 {m}
    9.144,59.00928,8.5344,  !- X,Y,Z ==> Vertex 2 {m}
    9.144,9.144,8.5344,  !- X,Y,Z ==> Vertex 3 {m}
    9.144,9.144,11.5824;  !- X,Y,Z ==> Vertex 4 {m}

  BuildingSurface:Detailed,
    E4 East Wall (M.W16.I51)-mirror Reversed,  !- Name
    Wall,                    !- Surface Type
    Interior Wall,           !- Construction Name
    Classroom E4 West Perim (M.W16),  !- Zone Name
    ,                        !- Space Name
    Surface,                 !- Outside Boundary Condition
    E4 East Wall (M.W16.I51)-mirror,  !- Outside Boundary Condition Object
    NoSun,                   !- Sun Exposure
    NoWind,                  !- Wind Exposure
    ,                        !- View Factor to Ground
    4,                       !- Number of Vertices
    9.144,9.144,11.5824,  !- X,Y,Z ==> Vertex 1 {m}
    9.144,9.144,8.5344,  !- X,Y,Z ==> Vertex 2 {m}
    9.144,59.00928,8.5344,  !- X,Y,Z ==> Vertex 3 {m}
    9.144,59.00928,11.5824;  !- X,Y,Z ==> Vertex 4 {m}

  BuildingSurface:Detailed,
    E4 East Wall (M.W22.I67)-mirror,  !- Name
    Wall,                    !- Surface Type
    Interior Wall,           !- Construction Name
    E4 Core Plnm (M.C23),    !- Zone Name
    ,                        !- Space Name
    Surface,                 !- Outside Boundary Condition
    E4 East Wall (M.W22.I67)-mirror Reversed,  !- Outside Boundary Condition Object
    NoSun,                   !- Sun Exposure
    NoWind,                  !- Wind Exposure
    ,                        !- View Factor to Ground
    4,                       !- Number of Vertices
    9.144,59.00928,12.8016,  !- X,Y,Z ==> Vertex 1 {m}
    9.144,59.00928,11.5824,  !- X,Y,Z ==> Vertex 2 {m}
    9.144,9.144,11.5824,  !- X,Y,Z ==> Vertex 3 {m}
    9.144,9.144,12.8016;  !- X,Y,Z ==> Vertex 4 {m}

  BuildingSurface:Detailed,
    E4 East Wall (M.W22.I67)-mirror Reversed,  !- Name
    Wall,                    !- Surface Type
    Interior Wall,           !- Construction Name
    E4 West Perim Plnm (M.W22),  !- Zone Name
    ,                        !- Space Name
    Surface,                 !- Outside Boundary Condition
    E4 East Wall (M.W22.I67)-mirror,  !- Outside Boundary Condition Object
    NoSun,                   !- Sun Exposure
    NoWind,                  !- Wind Exposure
    ,                        !- View Factor to Ground
    4,                       !- Number of Vertices
    9.144,9.144,12.8016,  !- X,Y,Z ==> Vertex 1 {m}
    9.144,9.144,11.5824,  !- X,Y,Z ==> Vertex 2 {m}
    9.144,59.00928,11.5824,  !- X,Y,Z ==> Vertex 3 {m}
    9.144,59.00928,12.8016;  !- X,Y,Z ==> Vertex 4 {m}

  BuildingSurface:Detailed,
    E4 East Wall (T.C29.I88),!- Name
    Wall,                    !- Surface Type
    Interior Wall,           !- Construction Name
    Computer E4 Core (T.C29),!- Zone Name
    ,                        !- Space Name
    Surface,                 !- Outside Boundary Condition
    E4 East Wall (T.C29.I88) Reversed,  !- Outside Boundary Condition Object
    NoSun,                   !- Sun Exposure
    NoWind,                  !- Wind Exposure
    ,                        !- View Factor to Ground
    4,                       !- Number of Vertices
    20.94588648,9.144,15.8496,  !- X,Y,Z ==> Vertex 1 {m}
    20.94588648,9.144,12.8016,  !- X,Y,Z ==> Vertex 2 {m}
    20.94588648,59.00928,12.8016,  !- X,Y,Z ==> Vertex 3 {m}
    20.94588648,59.00928,15.8496;  !- X,Y,Z ==> Vertex 4 {m}

  BuildingSurface:Detailed,
    E4 East Wall (T.C29.I88) Reversed,  !- Name
    Wall,                    !- Surface Type
    Interior Wall,           !- Construction Name
    Office E4 Core (T.C30),  !- Zone Name
    ,                        !- Space Name
    Surface,                 !- Outside Boundary Condition
    E4 East Wall (T.C29.I88),!- Outside Boundary Condition Object
    NoSun,                   !- Sun Exposure
    NoWind,                  !- Wind Exposure
    ,                        !- View Factor to Ground
    4,                       !- Number of Vertices
    20.94588648,59.00928,15.8496,  !- X,Y,Z ==> Vertex 1 {m}
    20.94588648,59.00928,12.8016,  !- X,Y,Z ==> Vertex 2 {m}
    20.94588648,9.144,12.8016,  !- X,Y,Z ==> Vertex 3 {m}
    20.94588648,9.144,15.8496;  !- X,Y,Z ==> Vertex 4 {m}

  BuildingSurface:Detailed,
    E4 East Wall (T.C35.I102),  !- Name
    Wall,                    !- Surface Type
    Interior Wall,           !- Construction Name
    E4 Core Plnm (T.C35),    !- Zone Name
    ,                        !- Space Name
    Surface,                 !- Outside Boundary Condition
    E4 East Wall (T.C35.I102) Reversed,  !- Outside Boundary Condition Object
    NoSun,                   !- Sun Exposure
    NoWind,                  !- Wind Exposure
    ,                        !- View Factor to Ground
    4,                       !- Number of Vertices
    20.94588648,9.144,17.0688,  !- X,Y,Z ==> Vertex 1 {m}
    20.94588648,9.144,15.8496,  !- X,Y,Z ==> Vertex 2 {m}
    20.94588648,59.00928,15.8496,  !- X,Y,Z ==> Vertex 3 {m}
    20.94588648,59.00928,17.0688;  !- X,Y,Z ==> Vertex 4 {m}

  BuildingSurface:Detailed,
    E4 East Wall (T.C35.I102) Reversed,  !- Name
    Wall,                    !- Surface Type
    Interior Wall,           !- Construction Name
    E4 Core Plnm (T.C36),    !- Zone Name
    ,                        !- Space Name
    Surface,                 !- Outside Boundary Condition
    E4 East Wall (T.C35.I102),  !- Outside Boundary Condition Object
    NoSun,                   !- Sun Exposure
    NoWind,                  !- Wind Exposure
    ,                        !- View Factor to Ground
    4,                       !- Number of Vertices
    20.94588648,59.00928,17.0688,  !- X,Y,Z ==> Vertex 1 {m}
    20.94588648,59.00928,15.8496,  !- X,Y,Z ==> Vertex 2 {m}
    20.94588648,9.144,15.8496,  !- X,Y,Z ==> Vertex 3 {m}
    20.94588648,9.144,17.0688;  !- X,Y,Z ==> Vertex 4 {m}

  BuildingSurface:Detailed,
    E4 East Wall (T.E26.E18),!- Name
    Wall,                    !- Surface Type
    Exterior Wall,           !- Construction Name
    Classroom E4 East Perim (T.E26),  !- Zone Name
    ,                        !- Space Name
    Outdoors,                !- Outside Boundary Condition
    ,                        !- Outside Boundary Condition Object
    SunExposed,              !- Sun Exposure
    WindExposed,             !- Wind Exposure
    ,                        !- View Factor to Ground
    4,                       !- Number of Vertices
    136.30656,0,15.8496,  !- X,Y,Z ==> Vertex 1 {m}
    136.30656,0,12.8016,  !- X,Y,Z ==> Vertex 2 {m}
    136.30656,68.15328,12.8016,  !- X,Y,Z ==> Vertex 3 {m}
    136.30656,68.15328,15.8496;  !- X,Y,Z ==> Vertex 4 {m}

  BuildingSurface:Detailed,
    E4 East Wall (T.E32.E23),!- Name
    Wall,                    !- Surface Type
    Exterior Wall,           !- Construction Name
    E4 East Perim Plnm (T.E32),  !- Zone Name
    ,                        !- Space Name
    Outdoors,                !- Outside Boundary Condition
    ,                        !- Outside Boundary Condition Object
    SunExposed,              !- Sun Exposure
    WindExposed,             !- Wind Exposure
    ,                        !- View Factor to Ground
    4,                       !- Number of Vertices
    136.30656,0,17.0688,  !- X,Y,Z ==> Vertex 1 {m}
    136.30656,0,15.8496,  !- X,Y,Z ==> Vertex 2 {m}
    136.30656,68.15328,15.8496,  !- X,Y,Z ==> Vertex 3 {m}
    136.30656,68.15328,17.0688;  !- X,Y,Z ==> Vertex 4 {m}

  BuildingSurface:Detailed,
    E4 East Wall (T.W28.I85)-mirror,  !- Name
    Wall,                    !- Surface Type
    Interior Wall,           !- Construction Name
    Computer E4 Core (T.C29),!- Zone Name
    ,                        !- Space Name
    Surface,                 !- Outside Boundary Condition
    E4 East Wall (T.W28.I85)-mirror Reversed,  !- Outside Boundary Condition Object
    NoSun,                   !- Sun Exposure
    NoWind,                  !- Wind Exposure
    ,                        !- View Factor to Ground
    4,                       !- Number of Vertices
    9.144,59.00928,15.8496,  !- X,Y,Z ==> Vertex 1 {m}
    9.144,59.00928,12.8016,  !- X,Y,Z ==> Vertex 2 {m}
    9.144,9.144,12.8016,  !- X,Y,Z ==> Vertex 3 {m}
    9.144,9.144,15.8496;  !- X,Y,Z ==> Vertex 4 {m}

  BuildingSurface:Detailed,
    E4 East Wall (T.W28.I85)-mirror Reversed,  !- Name
    Wall,                    !- Surface Type
    Interior Wall,           !- Construction Name
    Classroom E4 West Perim (T.W28),  !- Zone Name
    ,                        !- Space Name
    Surface,                 !- Outside Boundary Condition
    E4 East Wall (T.W28.I85)-mirror,  !- Outside Boundary Condition Object
    NoSun,                   !- Sun Exposure
    NoWind,                  !- Wind Exposure
    ,                        !- View Factor to Ground
    4,                       !- Number of Vertices
    9.144,9.144,15.8496,  !- X,Y,Z ==> Vertex 1 {m}
    9.144,9.144,12.8016,  !- X,Y,Z ==> Vertex 2 {m}
    9.144,59.00928,12.8016,  !- X,Y,Z ==> Vertex 3 {m}
    9.144,59.00928,15.8496;  !- X,Y,Z ==> Vertex 4 {m}

  BuildingSurface:Detailed,
    E4 East Wall (T.W34.I101)-mirror,  !- Name
    Wall,                    !- Surface Type
    Interior Wall,           !- Construction Name
    E4 Core Plnm (T.C35),    !- Zone Name
    ,                        !- Space Name
    Surface,                 !- Outside Boundary Condition
    E4 East Wall (T.W34.I101)-mirror Reversed,  !- Outside Boundary Condition Object
    NoSun,                   !- Sun Exposure
    NoWind,                  !- Wind Exposure
    ,                        !- View Factor to Ground
    4,                       !- Number of Vertices
    9.144,59.00928,17.0688,  !- X,Y,Z ==> Vertex 1 {m}
    9.144,59.00928,15.8496,  !- X,Y,Z ==> Vertex 2 {m}
    9.144,9.144,15.8496,  !- X,Y,Z ==> Vertex 3 {m}
    9.144,9.144,17.0688;  !- X,Y,Z ==> Vertex 4 {m}

  BuildingSurface:Detailed,
    E4 East Wall (T.W34.I101)-mirror Reversed,  !- Name
    Wall,                    !- Surface Type
    Interior Wall,           !- Construction Name
    E4 West Perim Plnm (T.W34),  !- Zone Name
    ,                        !- Space Name
    Surface,                 !- Outside Boundary Condition
    E4 East Wall (T.W34.I101)-mirror,  !- Outside Boundary Condition Object
    NoSun,                   !- Sun Exposure
    NoWind,                  !- Wind Exposure
    ,                        !- View Factor to Ground
    4,                       !- Number of Vertices
    9.144,9.144,17.0688,  !- X,Y,Z ==> Vertex 1 {m}
    9.144,9.144,15.8496,  !- X,Y,Z ==> Vertex 2 {m}
    9.144,59.00928,15.8496,  !- X,Y,Z ==> Vertex 3 {m}
    9.144,59.00928,17.0688;  !- X,Y,Z ==> Vertex 4 {m}

  BuildingSurface:Detailed,
    E4 Flr (G.C5.I19),       !- Name
    Floor,                   !- Surface Type
    Interior Floor,          !- Construction Name
    Computer E4 Core (G.C5), !- Zone Name
    ,                        !- Space Name
    Surface,                 !- Outside Boundary Condition
    E4 Flr (G.C5.I19) Reversed,  !- Outside Boundary Condition Object
    NoSun,                   !- Sun Exposure
    NoWind,                  !- Wind Exposure
    ,                        !- View Factor to Ground
    4,                       !- Number of Vertices
    20.94588648,59.00928,4.2672,  !- X,Y,Z ==> Vertex 1 {m}
    20.94588648,9.144,4.2672,  !- X,Y,Z ==> Vertex 2 {m}
    9.144,9.144,4.2672,  !- X,Y,Z ==> Vertex 3 {m}
    9.144,59.00928,4.2672;  !- X,Y,Z ==> Vertex 4 {m}

  BuildingSurface:Detailed,
    E4 Flr (G.C5.I19) Reversed,  !- Name
    Ceiling,                 !- Surface Type
    Radiant Interior Ceiling,!- Construction Name
    E1 West Perim Plnm (G.W2),  !- Zone Name
    ,                        !- Space Name
    Surface,                 !- Outside Boundary Condition
    E4 Flr (G.C5.I19),       !- Outside Boundary Condition Object
    NoSun,                   !- Sun Exposure
    NoWind,                  !- Wind Exposure
    ,                        !- View Factor to Ground
    4,                       !- Number of Vertices
    9.144,59.00928,4.2672,  !- X,Y,Z ==> Vertex 1 {m}
    9.144,9.144,4.2672,  !- X,Y,Z ==> Vertex 2 {m}
    20.94588648,9.144,4.2672,  !- X,Y,Z ==> Vertex 3 {m}
    20.94588648,59.00928,4.2672;  !- X,Y,Z ==> Vertex 4 {m}

  BuildingSurface:Detailed,
    E4 Flr (G.C6.I22),       !- Name
    Floor,                   !- Surface Type
    Interior Floor,          !- Construction Name
    Office E4 Core (G.C6),   !- Zone Name
    ,                        !- Space Name
    Surface,                 !- Outside Boundary Condition
    E4 Flr (G.C6.I22) Reversed,  !- Outside Boundary Condition Object
    NoSun,                   !- Sun Exposure
    NoWind,                  !- Wind Exposure
    ,                        !- View Factor to Ground
    4,                       !- Number of Vertices
    54.52872,59.00928,4.2672,  !- X,Y,Z ==> Vertex 1 {m}
    54.52872,9.144,4.2672,  !- X,Y,Z ==> Vertex 2 {m}
    20.94588648,9.144,4.2672,  !- X,Y,Z ==> Vertex 3 {m}
    20.94588648,59.00928,4.2672;  !- X,Y,Z ==> Vertex 4 {m}

  BuildingSurface:Detailed,
    E4 Flr (G.C6.I22) Reversed,  !- Name
    Ceiling,                 !- Surface Type
    Radiant Interior Ceiling,!- Construction Name
    E1 West Perim Plnm (G.W2),  !- Zone Name
    ,                        !- Space Name
    Surface,                 !- Outside Boundary Condition
    E4 Flr (G.C6.I22),       !- Outside Boundary Condition Object
    NoSun,                   !- Sun Exposure
    NoWind,                  !- Wind Exposure
    ,                        !- View Factor to Ground
    4,                       !- Number of Vertices
    20.94588648,59.00928,4.2672,  !- X,Y,Z ==> Vertex 1 {m}
    20.94588648,9.144,4.2672,  !- X,Y,Z ==> Vertex 2 {m}
    54.52872,9.144,4.2672,  !- X,Y,Z ==> Vertex 3 {m}
    54.52872,59.00928,4.2672;  !- X,Y,Z ==> Vertex 4 {m}

  BuildingSurface:Detailed,
    E4 Flr (G.E2.I7),        !- Name
    Floor,                   !- Surface Type
    Interior Floor,          !- Construction Name
    Classroom E4 East Perim (G.E2),  !- Zone Name
    ,                        !- Space Name
    Surface,                 !- Outside Boundary Condition
    E4 Flr (G.E2.I7) Reversed,  !- Outside Boundary Condition Object
    NoSun,                   !- Sun Exposure
    NoWind,                  !- Wind Exposure
    ,                        !- View Factor to Ground
    4,                       !- Number of Vertices
    136.30656,47.338488,4.2672,  !- X,Y,Z ==> Vertex 1 {m}
    136.30656,0,4.2672,  !- X,Y,Z ==> Vertex 2 {m}
    127.16256,9.144,4.2672,  !- X,Y,Z ==> Vertex 3 {m}
    127.16256,47.338488,4.2672;  !- X,Y,Z ==> Vertex 4 {m}

  BuildingSurface:Detailed,
    E4 Flr (G.E2.I7) Reversed,  !- Name
    Ceiling,                 !- Surface Type
    Radiant Interior Ceiling,!- Construction Name
    Dining E3 South Perim (G.S1),  !- Zone Name
    ,                        !- Space Name
    Surface,                 !- Outside Boundary Condition
    E4 Flr (G.E2.I7),        !- Outside Boundary Condition Object
    NoSun,                   !- Sun Exposure
    NoWind,                  !- Wind Exposure
    ,                        !- View Factor to Ground
    4,                       !- Number of Vertices
    127.16256,47.338488,4.2672,  !- X,Y,Z ==> Vertex 1 {m}
    127.16256,9.144,4.2672,  !- X,Y,Z ==> Vertex 2 {m}
    136.30656,0,4.2672,  !- X,Y,Z ==> Vertex 3 {m}
    136.30656,47.338488,4.2672;  !- X,Y,Z ==> Vertex 4 {m}

  BuildingSurface:Detailed,
    E4 Flr (G.N3.I10),       !- Name
    Floor,                   !- Surface Type
    Interior Floor,          !- Construction Name
    Classroom E4 North Perim (G.N3),  !- Zone Name
    ,                        !- Space Name
    Surface,                 !- Outside Boundary Condition
    E4 Flr (G.N3.I10) Reversed,  !- Outside Boundary Condition Object
    NoSun,                   !- Sun Exposure
    NoWind,                  !- Wind Exposure
    ,                        !- View Factor to Ground
    4,                       !- Number of Vertices
    54.52872,68.15328,4.2672,  !- X,Y,Z ==> Vertex 1 {m}
    54.52872,59.00928,4.2672,  !- X,Y,Z ==> Vertex 2 {m}
    9.144,59.00928,4.2672,  !- X,Y,Z ==> Vertex 3 {m}
    0,68.15328,4.2672;  !- X,Y,Z ==> Vertex 4 {m}

  BuildingSurface:Detailed,
    E4 Flr (G.N3.I10) Reversed,  !- Name
    Ceiling,                 !- Surface Type
    Radiant Interior Ceiling,!- Construction Name
    E1 West Perim Plnm (G.W2),  !- Zone Name
    ,                        !- Space Name
    Surface,                 !- Outside Boundary Condition
    E4 Flr (G.N3.I10),       !- Outside Boundary Condition Object
    NoSun,                   !- Sun Exposure
    NoWind,                  !- Wind Exposure
    ,                        !- View Factor to Ground
    4,                       !- Number of Vertices
    0,68.15328,4.2672,  !- X,Y,Z ==> Vertex 1 {m}
    9.144,59.00928,4.2672,  !- X,Y,Z ==> Vertex 2 {m}
    54.52872,59.00928,4.2672,  !- X,Y,Z ==> Vertex 3 {m}
    54.52872,68.15328,4.2672;  !- X,Y,Z ==> Vertex 4 {m}

  BuildingSurface:Detailed,
    E4 Flr (G.S1.I1),        !- Name
    Floor,                   !- Surface Type
    Interior Floor,          !- Construction Name
    Classroom E4 South Perim (G.S1),  !- Zone Name
    ,                        !- Space Name
    Surface,                 !- Outside Boundary Condition
    E4 Flr (G.S1.I1) Reversed,  !- Outside Boundary Condition Object
    NoSun,                   !- Sun Exposure
    NoWind,                  !- Wind Exposure
    ,                        !- View Factor to Ground
    4,                       !- Number of Vertices
    54.52872,9.144,4.2672,  !- X,Y,Z ==> Vertex 1 {m}
    54.52872,0,4.2672,  !- X,Y,Z ==> Vertex 2 {m}
    0,0,4.2672,  !- X,Y,Z ==> Vertex 3 {m}
    9.144,9.144,4.2672;  !- X,Y,Z ==> Vertex 4 {m}

  BuildingSurface:Detailed,
    E4 Flr (G.S1.I1) Reversed,  !- Name
    Ceiling,                 !- Surface Type
    Radiant Interior Ceiling,!- Construction Name
    E1 West Perim Plnm (G.W2),  !- Zone Name
    ,                        !- Space Name
    Surface,                 !- Outside Boundary Condition
    E4 Flr (G.S1.I1),        !- Outside Boundary Condition Object
    NoSun,                   !- Sun Exposure
    NoWind,                  !- Wind Exposure
    ,                        !- View Factor to Ground
    4,                       !- Number of Vertices
    9.144,9.144,4.2672,  !- X,Y,Z ==> Vertex 1 {m}
    0,0,4.2672,  !- X,Y,Z ==> Vertex 2 {m}
    54.52872,0,4.2672,  !- X,Y,Z ==> Vertex 3 {m}
    54.52872,9.144,4.2672;  !- X,Y,Z ==> Vertex 4 {m}

  BuildingSurface:Detailed,
    E4 Flr (G.W4.I16),       !- Name
    Floor,                   !- Surface Type
    Interior Floor,          !- Construction Name
    Classroom E4 West Perim (G.W4),  !- Zone Name
    ,                        !- Space Name
    Surface,                 !- Outside Boundary Condition
    E4 Flr (G.W4.I16) Reversed,  !- Outside Boundary Condition Object
    NoSun,                   !- Sun Exposure
    NoWind,                  !- Wind Exposure
    ,                        !- View Factor to Ground
    4,                       !- Number of Vertices
    0,68.15328,4.2672,  !- X,Y,Z ==> Vertex 1 {m}
    9.144,59.00928,4.2672,  !- X,Y,Z ==> Vertex 2 {m}
    9.144,9.144,4.2672,  !- X,Y,Z ==> Vertex 3 {m}
    0,0,4.2672;  !- X,Y,Z ==> Vertex 4 {m}

  BuildingSurface:Detailed,
    E4 Flr (G.W4.I16) Reversed,  !- Name
    Ceiling,                 !- Surface Type
    Radiant Interior Ceiling,!- Construction Name
    E1 West Perim Plnm (G.W2),  !- Zone Name
    ,                        !- Space Name
    Surface,                 !- Outside Boundary Condition
    E4 Flr (G.W4.I16),       !- Outside Boundary Condition Object
    NoSun,                   !- Sun Exposure
    NoWind,                  !- Wind Exposure
    ,                        !- View Factor to Ground
    4,                       !- Number of Vertices
    0,68.15328,4.2672,  !- X,Y,Z ==> Vertex 1 {m}
    0,0,4.2672,  !- X,Y,Z ==> Vertex 2 {m}
    9.144,9.144,4.2672,  !- X,Y,Z ==> Vertex 3 {m}
    9.144,59.00928,4.2672;  !- X,Y,Z ==> Vertex 4 {m}

  BuildingSurface:Detailed,
    E4 Flr (M.C17.I53),      !- Name
    Floor,                   !- Surface Type
    Interior Floor,          !- Construction Name
    Computer E4 Core (M.C17),!- Zone Name
    ,                        !- Space Name
    Surface,                 !- Outside Boundary Condition
    E4 Flr (M.C17.I53) Reversed,  !- Outside Boundary Condition Object
    NoSun,                   !- Sun Exposure
    NoWind,                  !- Wind Exposure
    ,                        !- View Factor to Ground
    4,                       !- Number of Vertices
    20.94588648,59.00928,8.5344,  !- X,Y,Z ==> Vertex 1 {m}
    20.94588648,9.144,8.5344,  !- X,Y,Z ==> Vertex 2 {m}
    9.144,9.144,8.5344,  !- X,Y,Z ==> Vertex 3 {m}
    9.144,59.00928,8.5344;  !- X,Y,Z ==> Vertex 4 {m}

  BuildingSurface:Detailed,
    E4 Flr (M.C17.I53) Reversed,  !- Name
    Ceiling,                 !- Surface Type
    Radiant Interior Ceiling,!- Construction Name
    E4 Core Plnm (G.C11),    !- Zone Name
    ,                        !- Space Name
    Surface,                 !- Outside Boundary Condition
    E4 Flr (M.C17.I53),      !- Outside Boundary Condition Object
    NoSun,                   !- Sun Exposure
    NoWind,                  !- Wind Exposure
    ,                        !- View Factor to Ground
    4,                       !- Number of Vertices
    9.144,59.00928,8.5344,  !- X,Y,Z ==> Vertex 1 {m}
    9.144,9.144,8.5344,  !- X,Y,Z ==> Vertex 2 {m}
    20.94588648,9.144,8.5344,  !- X,Y,Z ==> Vertex 3 {m}
    20.94588648,59.00928,8.5344;  !- X,Y,Z ==> Vertex 4 {m}

  BuildingSurface:Detailed,
    E4 Flr (M.C18.I56),      !- Name
    Floor,                   !- Surface Type
    Interior Floor,          !- Construction Name
    Office E4 Core (M.C18),  !- Zone Name
    ,                        !- Space Name
    Surface,                 !- Outside Boundary Condition
    E4 Flr (M.C18.I56) Reversed,  !- Outside Boundary Condition Object
    NoSun,                   !- Sun Exposure
    NoWind,                  !- Wind Exposure
    ,                        !- View Factor to Ground
    4,                       !- Number of Vertices
    127.16256,59.00928,8.5344,  !- X,Y,Z ==> Vertex 1 {m}
    127.16256,9.144,8.5344,  !- X,Y,Z ==> Vertex 2 {m}
    20.94588648,9.144,8.5344,  !- X,Y,Z ==> Vertex 3 {m}
    20.94588648,59.00928,8.5344;  !- X,Y,Z ==> Vertex 4 {m}

  BuildingSurface:Detailed,
    E4 Flr (M.C18.I56) Reversed,  !- Name
    Ceiling,                 !- Surface Type
    Radiant Interior Ceiling,!- Construction Name
    E4 Core Plnm (G.C12),    !- Zone Name
    ,                        !- Space Name
    Surface,                 !- Outside Boundary Condition
    E4 Flr (M.C18.I56),      !- Outside Boundary Condition Object
    NoSun,                   !- Sun Exposure
    NoWind,                  !- Wind Exposure
    ,                        !- View Factor to Ground
    4,                       !- Number of Vertices
    20.94588648,59.00928,8.5344,  !- X,Y,Z ==> Vertex 1 {m}
    20.94588648,9.144,8.5344,  !- X,Y,Z ==> Vertex 2 {m}
    127.16256,9.144,8.5344,  !- X,Y,Z ==> Vertex 3 {m}
    127.16256,59.00928,8.5344;  !- X,Y,Z ==> Vertex 4 {m}

  BuildingSurface:Detailed,
    E4 Flr (M.E14.I41),      !- Name
    Floor,                   !- Surface Type
    Interior Floor,          !- Construction Name
    Classroom E4 East Perim (M.E14),  !- Zone Name
    ,                        !- Space Name
    Surface,                 !- Outside Boundary Condition
    E4 Flr (M.E14.I41) Reversed,  !- Outside Boundary Condition Object
    NoSun,                   !- Sun Exposure
    NoWind,                  !- Wind Exposure
    ,                        !- View Factor to Ground
    4,                       !- Number of Vertices
    136.30656,68.15328,8.5344,  !- X,Y,Z ==> Vertex 1 {m}
    136.30656,0,8.5344,  !- X,Y,Z ==> Vertex 2 {m}
    127.16256,9.144,8.5344,  !- X,Y,Z ==> Vertex 3 {m}
    127.16256,59.00928,8.5344;  !- X,Y,Z ==> Vertex 4 {m}

  BuildingSurface:Detailed,
    E4 Flr (M.E14.I41) Reversed,  !- Name
    Ceiling,                 !- Surface Type
    Radiant Interior Ceiling,!- Construction Name
    E4 East Perim Plnm (G.E8),  !- Zone Name
    ,                        !- Space Name
    Surface,                 !- Outside Boundary Condition
    E4 Flr (M.E14.I41),      !- Outside Boundary Condition Object
    NoSun,                   !- Sun Exposure
    NoWind,                  !- Wind Exposure
    ,                        !- View Factor to Ground
    4,                       !- Number of Vertices
    136.30656,68.15328,8.5344,  !- X,Y,Z ==> Vertex 1 {m}
    127.16256,59.00928,8.5344,  !- X,Y,Z ==> Vertex 2 {m}
    127.16256,9.144,8.5344,  !- X,Y,Z ==> Vertex 3 {m}
    136.30656,0,8.5344;  !- X,Y,Z ==> Vertex 4 {m}

  BuildingSurface:Detailed,
    E4 Flr (M.N15.I44),      !- Name
    Floor,                   !- Surface Type
    Interior Floor,          !- Construction Name
    Classroom E4 North Perim (M.N15),  !- Zone Name
    ,                        !- Space Name
    Surface,                 !- Outside Boundary Condition
    E4 Flr (M.N15.I44) Reversed,  !- Outside Boundary Condition Object
    NoSun,                   !- Sun Exposure
    NoWind,                  !- Wind Exposure
    ,                        !- View Factor to Ground
    4,                       !- Number of Vertices
    136.30656,68.15328,8.5344,  !- X,Y,Z ==> Vertex 1 {m}
    127.16256,59.00928,8.5344,  !- X,Y,Z ==> Vertex 2 {m}
    9.144,59.00928,8.5344,  !- X,Y,Z ==> Vertex 3 {m}
    0,68.15328,8.5344;  !- X,Y,Z ==> Vertex 4 {m}

  BuildingSurface:Detailed,
    E4 Flr (M.N15.I44) Reversed,  !- Name
    Ceiling,                 !- Surface Type
    Radiant Interior Ceiling,!- Construction Name
    E4 North Perim Plnm (G.N9),  !- Zone Name
    ,                        !- Space Name
    Surface,                 !- Outside Boundary Condition
    E4 Flr (M.N15.I44),      !- Outside Boundary Condition Object
    NoSun,                   !- Sun Exposure
    NoWind,                  !- Wind Exposure
    ,                        !- View Factor to Ground
    4,                       !- Number of Vertices
    0,68.15328,8.5344,  !- X,Y,Z ==> Vertex 1 {m}
    9.144,59.00928,8.5344,  !- X,Y,Z ==> Vertex 2 {m}
    127.16256,59.00928,8.5344,  !- X,Y,Z ==> Vertex 3 {m}
    136.30656,68.15328,8.5344;  !- X,Y,Z ==> Vertex 4 {m}

  BuildingSurface:Detailed,
    E4 Flr (M.S13.I35),      !- Name
    Floor,                   !- Surface Type
    Interior Floor,          !- Construction Name
    Classroom E4 South Perim (M.S13),  !- Zone Name
    ,                        !- Space Name
    Surface,                 !- Outside Boundary Condition
    E4 Flr (M.S13.I35) Reversed,  !- Outside Boundary Condition Object
    NoSun,                   !- Sun Exposure
    NoWind,                  !- Wind Exposure
    ,                        !- View Factor to Ground
    4,                       !- Number of Vertices
    127.16256,9.144,8.5344,  !- X,Y,Z ==> Vertex 1 {m}
    136.30656,0,8.5344,  !- X,Y,Z ==> Vertex 2 {m}
    0,0,8.5344,  !- X,Y,Z ==> Vertex 3 {m}
    9.144,9.144,8.5344;  !- X,Y,Z ==> Vertex 4 {m}

  BuildingSurface:Detailed,
    E4 Flr (M.S13.I35) Reversed,  !- Name
    Ceiling,                 !- Surface Type
    Radiant Interior Ceiling,!- Construction Name
    E4 South Perim Plnm (G.S7),  !- Zone Name
    ,                        !- Space Name
    Surface,                 !- Outside Boundary Condition
    E4 Flr (M.S13.I35),      !- Outside Boundary Condition Object
    NoSun,                   !- Sun Exposure
    NoWind,                  !- Wind Exposure
    ,                        !- View Factor to Ground
    4,                       !- Number of Vertices
    9.144,9.144,8.5344,  !- X,Y,Z ==> Vertex 1 {m}
    0,0,8.5344,  !- X,Y,Z ==> Vertex 2 {m}
    136.30656,0,8.5344,  !- X,Y,Z ==> Vertex 3 {m}
    127.16256,9.144,8.5344;  !- X,Y,Z ==> Vertex 4 {m}

  BuildingSurface:Detailed,
    E4 Flr (M.W16.I50),      !- Name
    Floor,                   !- Surface Type
    Interior Floor,          !- Construction Name
    Classroom E4 West Perim (M.W16),  !- Zone Name
    ,                        !- Space Name
    Surface,                 !- Outside Boundary Condition
    E4 Flr (M.W16.I50) Reversed,  !- Outside Boundary Condition Object
    NoSun,                   !- Sun Exposure
    NoWind,                  !- Wind Exposure
    ,                        !- View Factor to Ground
    4,                       !- Number of Vertices
    0,68.15328,8.5344,  !- X,Y,Z ==> Vertex 1 {m}
    9.144,59.00928,8.5344,  !- X,Y,Z ==> Vertex 2 {m}
    9.144,9.144,8.5344,  !- X,Y,Z ==> Vertex 3 {m}
    0,0,8.5344;  !- X,Y,Z ==> Vertex 4 {m}

  BuildingSurface:Detailed,
    E4 Flr (M.W16.I50) Reversed,  !- Name
    Ceiling,                 !- Surface Type
    Radiant Interior Ceiling,!- Construction Name
    E4 West Perim Plnm (G.W10),  !- Zone Name
    ,                        !- Space Name
    Surface,                 !- Outside Boundary Condition
    E4 Flr (M.W16.I50),      !- Outside Boundary Condition Object
    NoSun,                   !- Sun Exposure
    NoWind,                  !- Wind Exposure
    ,                        !- View Factor to Ground
    4,                       !- Number of Vertices
    0,68.15328,8.5344,  !- X,Y,Z ==> Vertex 1 {m}
    0,0,8.5344,  !- X,Y,Z ==> Vertex 2 {m}
    9.144,9.144,8.5344,  !- X,Y,Z ==> Vertex 3 {m}
    9.144,59.00928,8.5344;  !- X,Y,Z ==> Vertex 4 {m}

  BuildingSurface:Detailed,
    E4 Flr (T.C29.I87),      !- Name
    Floor,                   !- Surface Type
    Interior Floor,          !- Construction Name
    Computer E4 Core (T.C29),!- Zone Name
    ,                        !- Space Name
    Surface,                 !- Outside Boundary Condition
    E4 Flr (T.C29.I87) Reversed,  !- Outside Boundary Condition Object
    NoSun,                   !- Sun Exposure
    NoWind,                  !- Wind Exposure
    ,                        !- View Factor to Ground
    4,                       !- Number of Vertices
    20.94588648,59.00928,12.8016,  !- X,Y,Z ==> Vertex 1 {m}
    20.94588648,9.144,12.8016,  !- X,Y,Z ==> Vertex 2 {m}
    9.144,9.144,12.8016,  !- X,Y,Z ==> Vertex 3 {m}
    9.144,59.00928,12.8016;  !- X,Y,Z ==> Vertex 4 {m}

  BuildingSurface:Detailed,
    E4 Flr (T.C29.I87) Reversed,  !- Name
    Ceiling,                 !- Surface Type
    Radiant Interior Ceiling,!- Construction Name
    E4 Core Plnm (M.C23),    !- Zone Name
    ,                        !- Space Name
    Surface,                 !- Outside Boundary Condition
    E4 Flr (T.C29.I87),      !- Outside Boundary Condition Object
    NoSun,                   !- Sun Exposure
    NoWind,                  !- Wind Exposure
    ,                        !- View Factor to Ground
    4,                       !- Number of Vertices
    9.144,59.00928,12.8016,  !- X,Y,Z ==> Vertex 1 {m}
    9.144,9.144,12.8016,  !- X,Y,Z ==> Vertex 2 {m}
    20.94588648,9.144,12.8016,  !- X,Y,Z ==> Vertex 3 {m}
    20.94588648,59.00928,12.8016;  !- X,Y,Z ==> Vertex 4 {m}

  BuildingSurface:Detailed,
    E4 Flr (T.C30.I90),      !- Name
    Floor,                   !- Surface Type
    Interior Floor,          !- Construction Name
    Office E4 Core (T.C30),  !- Zone Name
    ,                        !- Space Name
    Surface,                 !- Outside Boundary Condition
    E4 Flr (T.C30.I90) Reversed,  !- Outside Boundary Condition Object
    NoSun,                   !- Sun Exposure
    NoWind,                  !- Wind Exposure
    ,                        !- View Factor to Ground
    4,                       !- Number of Vertices
    127.16256,59.00928,12.8016,  !- X,Y,Z ==> Vertex 1 {m}
    127.16256,9.144,12.8016,  !- X,Y,Z ==> Vertex 2 {m}
    20.94588648,9.144,12.8016,  !- X,Y,Z ==> Vertex 3 {m}
    20.94588648,59.00928,12.8016;  !- X,Y,Z ==> Vertex 4 {m}

  BuildingSurface:Detailed,
    E4 Flr (T.C30.I90) Reversed,  !- Name
    Ceiling,                 !- Surface Type
    Radiant Interior Ceiling,!- Construction Name
    E4 Core Plnm (M.C24),    !- Zone Name
    ,                        !- Space Name
    Surface,                 !- Outside Boundary Condition
    E4 Flr (T.C30.I90),      !- Outside Boundary Condition Object
    NoSun,                   !- Sun Exposure
    NoWind,                  !- Wind Exposure
    ,                        !- View Factor to Ground
    4,                       !- Number of Vertices
    20.94588648,59.00928,12.8016,  !- X,Y,Z ==> Vertex 1 {m}
    20.94588648,9.144,12.8016,  !- X,Y,Z ==> Vertex 2 {m}
    127.16256,9.144,12.8016,  !- X,Y,Z ==> Vertex 3 {m}
    127.16256,59.00928,12.8016;  !- X,Y,Z ==> Vertex 4 {m}

  BuildingSurface:Detailed,
    E4 Flr (T.E26.I75),      !- Name
    Floor,                   !- Surface Type
    Interior Floor,          !- Construction Name
    Classroom E4 East Perim (T.E26),  !- Zone Name
    ,                        !- Space Name
    Surface,                 !- Outside Boundary Condition
    E4 Flr (T.E26.I75) Reversed,  !- Outside Boundary Condition Object
    NoSun,                   !- Sun Exposure
    NoWind,                  !- Wind Exposure
    ,                        !- View Factor to Ground
    4,                       !- Number of Vertices
    136.30656,68.15328,12.8016,  !- X,Y,Z ==> Vertex 1 {m}
    136.30656,0,12.8016,  !- X,Y,Z ==> Vertex 2 {m}
    127.16256,9.144,12.8016,  !- X,Y,Z ==> Vertex 3 {m}
    127.16256,59.00928,12.8016;  !- X,Y,Z ==> Vertex 4 {m}

  BuildingSurface:Detailed,
    E4 Flr (T.E26.I75) Reversed,  !- Name
    Ceiling,                 !- Surface Type
    Radiant Interior Ceiling,!- Construction Name
    E4 East Perim Plnm (M.E20),  !- Zone Name
    ,                        !- Space Name
    Surface,                 !- Outside Boundary Condition
    E4 Flr (T.E26.I75),      !- Outside Boundary Condition Object
    NoSun,                   !- Sun Exposure
    NoWind,                  !- Wind Exposure
    ,                        !- View Factor to Ground
    4,                       !- Number of Vertices
    136.30656,68.15328,12.8016,  !- X,Y,Z ==> Vertex 1 {m}
    127.16256,59.00928,12.8016,  !- X,Y,Z ==> Vertex 2 {m}
    127.16256,9.144,12.8016,  !- X,Y,Z ==> Vertex 3 {m}
    136.30656,0,12.8016;  !- X,Y,Z ==> Vertex 4 {m}

  BuildingSurface:Detailed,
    E4 Flr (T.N27.I78),      !- Name
    Floor,                   !- Surface Type
    Interior Floor,          !- Construction Name
    Classroom E4 North Perim (T.N27),  !- Zone Name
    ,                        !- Space Name
    Surface,                 !- Outside Boundary Condition
    E4 Flr (T.N27.I78) Reversed,  !- Outside Boundary Condition Object
    NoSun,                   !- Sun Exposure
    NoWind,                  !- Wind Exposure
    ,                        !- View Factor to Ground
    4,                       !- Number of Vertices
    136.30656,68.15328,12.8016,  !- X,Y,Z ==> Vertex 1 {m}
    127.16256,59.00928,12.8016,  !- X,Y,Z ==> Vertex 2 {m}
    9.144,59.00928,12.8016,  !- X,Y,Z ==> Vertex 3 {m}
    0,68.15328,12.8016;  !- X,Y,Z ==> Vertex 4 {m}

  BuildingSurface:Detailed,
    E4 Flr (T.N27.I78) Reversed,  !- Name
    Ceiling,                 !- Surface Type
    Radiant Interior Ceiling,!- Construction Name
    E4 North Perim Plnm (M.N21),  !- Zone Name
    ,                        !- Space Name
    Surface,                 !- Outside Boundary Condition
    E4 Flr (T.N27.I78),      !- Outside Boundary Condition Object
    NoSun,                   !- Sun Exposure
    NoWind,                  !- Wind Exposure
    ,                        !- View Factor to Ground
    4,                       !- Number of Vertices
    0,68.15328,12.8016,  !- X,Y,Z ==> Vertex 1 {m}
    9.144,59.00928,12.8016,  !- X,Y,Z ==> Vertex 2 {m}
    127.16256,59.00928,12.8016,  !- X,Y,Z ==> Vertex 3 {m}
    136.30656,68.15328,12.8016;  !- X,Y,Z ==> Vertex 4 {m}

  BuildingSurface:Detailed,
    E4 Flr (T.S25.I69),      !- Name
    Floor,                   !- Surface Type
    Interior Floor,          !- Construction Name
    Classroom E4 South Perim (T.S25),  !- Zone Name
    ,                        !- Space Name
    Surface,                 !- Outside Boundary Condition
    E4 Flr (T.S25.I69) Reversed,  !- Outside Boundary Condition Object
    NoSun,                   !- Sun Exposure
    NoWind,                  !- Wind Exposure
    ,                        !- View Factor to Ground
    4,                       !- Number of Vertices
    127.16256,9.144,12.8016,  !- X,Y,Z ==> Vertex 1 {m}
    136.30656,0,12.8016,  !- X,Y,Z ==> Vertex 2 {m}
    0,0,12.8016,  !- X,Y,Z ==> Vertex 3 {m}
    9.144,9.144,12.8016;  !- X,Y,Z ==> Vertex 4 {m}

  BuildingSurface:Detailed,
    E4 Flr (T.S25.I69) Reversed,  !- Name
    Ceiling,                 !- Surface Type
    Radiant Interior Ceiling,!- Construction Name
    E4 South Perim Plnm (M.S19),  !- Zone Name
    ,                        !- Space Name
    Surface,                 !- Outside Boundary Condition
    E4 Flr (T.S25.I69),      !- Outside Boundary Condition Object
    NoSun,                   !- Sun Exposure
    NoWind,                  !- Wind Exposure
    ,                        !- View Factor to Ground
    4,                       !- Number of Vertices
    9.144,9.144,12.8016,  !- X,Y,Z ==> Vertex 1 {m}
    0,0,12.8016,  !- X,Y,Z ==> Vertex 2 {m}
    136.30656,0,12.8016,  !- X,Y,Z ==> Vertex 3 {m}
    127.16256,9.144,12.8016;  !- X,Y,Z ==> Vertex 4 {m}

  BuildingSurface:Detailed,
    E4 Flr (T.W28.I84),      !- Name
    Floor,                   !- Surface Type
    Interior Floor,          !- Construction Name
    Classroom E4 West Perim (T.W28),  !- Zone Name
    ,                        !- Space Name
    Surface,                 !- Outside Boundary Condition
    E4 Flr (T.W28.I84) Reversed,  !- Outside Boundary Condition Object
    NoSun,                   !- Sun Exposure
    NoWind,                  !- Wind Exposure
    ,                        !- View Factor to Ground
    4,                       !- Number of Vertices
    0,68.15328,12.8016,  !- X,Y,Z ==> Vertex 1 {m}
    9.144,59.00928,12.8016,  !- X,Y,Z ==> Vertex 2 {m}
    9.144,9.144,12.8016,  !- X,Y,Z ==> Vertex 3 {m}
    0,0,12.8016;  !- X,Y,Z ==> Vertex 4 {m}

  BuildingSurface:Detailed,
    E4 Flr (T.W28.I84) Reversed,  !- Name
    Ceiling,                 !- Surface Type
    Radiant Interior Ceiling,!- Construction Name
    E4 West Perim Plnm (M.W22),  !- Zone Name
    ,                        !- Space Name
    Surface,                 !- Outside Boundary Condition
    E4 Flr (T.W28.I84),      !- Outside Boundary Condition Object
    NoSun,                   !- Sun Exposure
    NoWind,                  !- Wind Exposure
    ,                        !- View Factor to Ground
    4,                       !- Number of Vertices
    0,68.15328,12.8016,  !- X,Y,Z ==> Vertex 1 {m}
    0,0,12.8016,  !- X,Y,Z ==> Vertex 2 {m}
    9.144,9.144,12.8016,  !- X,Y,Z ==> Vertex 3 {m}
    9.144,59.00928,12.8016;  !- X,Y,Z ==> Vertex 4 {m}

  BuildingSurface:Detailed,
    E4 NE Wall (G.S1.I2)-mirror,  !- Name
    Wall,                    !- Surface Type
    Interior Wall,           !- Construction Name
    Classroom E4 East Perim (G.E2),  !- Zone Name
    ,                        !- Space Name
    Surface,                 !- Outside Boundary Condition
    E4 NE Wall (G.S1.I2)-mirror Reversed,  !- Outside Boundary Condition Object
    NoSun,                   !- Sun Exposure
    NoWind,                  !- Wind Exposure
    ,                        !- View Factor to Ground
    4,                       !- Number of Vertices
    127.16256,9.144,7.3152,  !- X,Y,Z ==> Vertex 1 {m}
    127.16256,9.144,4.2672,  !- X,Y,Z ==> Vertex 2 {m}
    136.30656,0,4.2672,  !- X,Y,Z ==> Vertex 3 {m}
    136.30656,0,7.3152;  !- X,Y,Z ==> Vertex 4 {m}

  BuildingSurface:Detailed,
    E4 NE Wall (G.S1.I2)-mirror Reversed,  !- Name
    Wall,                    !- Surface Type
    Interior Wall,           !- Construction Name
    Classroom E4 South Perim (G.S1),  !- Zone Name
    ,                        !- Space Name
    Surface,                 !- Outside Boundary Condition
    E4 NE Wall (G.S1.I2)-mirror,  !- Outside Boundary Condition Object
    NoSun,                   !- Sun Exposure
    NoWind,                  !- Wind Exposure
    ,                        !- View Factor to Ground
    4,                       !- Number of Vertices
    136.30656,0,7.3152,  !- X,Y,Z ==> Vertex 1 {m}
    136.30656,0,4.2672,  !- X,Y,Z ==> Vertex 2 {m}
    127.16256,9.144,4.2672,  !- X,Y,Z ==> Vertex 3 {m}
    127.16256,9.144,7.3152;  !- X,Y,Z ==> Vertex 4 {m}

  BuildingSurface:Detailed,
    E4 NE Wall (G.S7.I24)-mirror,  !- Name
    Wall,                    !- Surface Type
    Interior Wall,           !- Construction Name
    E4 East Perim Plnm (G.E8),  !- Zone Name
    ,                        !- Space Name
    Surface,                 !- Outside Boundary Condition
    E4 NE Wall (G.S7.I24)-mirror Reversed,  !- Outside Boundary Condition Object
    NoSun,                   !- Sun Exposure
    NoWind,                  !- Wind Exposure
    ,                        !- View Factor to Ground
    4,                       !- Number of Vertices
    127.16256,9.144,8.5344,  !- X,Y,Z ==> Vertex 1 {m}
    127.16256,9.144,7.3152,  !- X,Y,Z ==> Vertex 2 {m}
    136.30656,0,7.3152,  !- X,Y,Z ==> Vertex 3 {m}
    136.30656,0,8.5344;  !- X,Y,Z ==> Vertex 4 {m}

  BuildingSurface:Detailed,
    E4 NE Wall (G.S7.I24)-mirror Reversed,  !- Name
    Wall,                    !- Surface Type
    Interior Wall,           !- Construction Name
    E4 South Perim Plnm (G.S7),  !- Zone Name
    ,                        !- Space Name
    Surface,                 !- Outside Boundary Condition
    E4 NE Wall (G.S7.I24)-mirror,  !- Outside Boundary Condition Object
    NoSun,                   !- Sun Exposure
    NoWind,                  !- Wind Exposure
    ,                        !- View Factor to Ground
    4,                       !- Number of Vertices
    136.30656,0,8.5344,  !- X,Y,Z ==> Vertex 1 {m}
    136.30656,0,7.3152,  !- X,Y,Z ==> Vertex 2 {m}
    127.16256,9.144,7.3152,  !- X,Y,Z ==> Vertex 3 {m}
    127.16256,9.144,8.5344;  !- X,Y,Z ==> Vertex 4 {m}

  BuildingSurface:Detailed,
    E4 NE Wall (M.S13.I36)-mirror,  !- Name
    Wall,                    !- Surface Type
    Interior Wall,           !- Construction Name
    Classroom E4 East Perim (M.E14),  !- Zone Name
    ,                        !- Space Name
    Surface,                 !- Outside Boundary Condition
    E4 NE Wall (M.S13.I36)-mirror Reversed,  !- Outside Boundary Condition Object
    NoSun,                   !- Sun Exposure
    NoWind,                  !- Wind Exposure
    ,                        !- View Factor to Ground
    4,                       !- Number of Vertices
    127.16256,9.144,11.5824,  !- X,Y,Z ==> Vertex 1 {m}
    127.16256,9.144,8.5344,  !- X,Y,Z ==> Vertex 2 {m}
    136.30656,0,8.5344,  !- X,Y,Z ==> Vertex 3 {m}
    136.30656,0,11.5824;  !- X,Y,Z ==> Vertex 4 {m}

  BuildingSurface:Detailed,
    E4 NE Wall (M.S13.I36)-mirror Reversed,  !- Name
    Wall,                    !- Surface Type
    Interior Wall,           !- Construction Name
    Classroom E4 South Perim (M.S13),  !- Zone Name
    ,                        !- Space Name
    Surface,                 !- Outside Boundary Condition
    E4 NE Wall (M.S13.I36)-mirror,  !- Outside Boundary Condition Object
    NoSun,                   !- Sun Exposure
    NoWind,                  !- Wind Exposure
    ,                        !- View Factor to Ground
    4,                       !- Number of Vertices
    136.30656,0,11.5824,  !- X,Y,Z ==> Vertex 1 {m}
    136.30656,0,8.5344,  !- X,Y,Z ==> Vertex 2 {m}
    127.16256,9.144,8.5344,  !- X,Y,Z ==> Vertex 3 {m}
    127.16256,9.144,11.5824;  !- X,Y,Z ==> Vertex 4 {m}

  BuildingSurface:Detailed,
    E4 NE Wall (M.S19.I58)-mirror,  !- Name
    Wall,                    !- Surface Type
    Interior Wall,           !- Construction Name
    E4 East Perim Plnm (M.E20),  !- Zone Name
    ,                        !- Space Name
    Surface,                 !- Outside Boundary Condition
    E4 NE Wall (M.S19.I58)-mirror Reversed,  !- Outside Boundary Condition Object
    NoSun,                   !- Sun Exposure
    NoWind,                  !- Wind Exposure
    ,                        !- View Factor to Ground
    4,                       !- Number of Vertices
    127.16256,9.144,12.8016,  !- X,Y,Z ==> Vertex 1 {m}
    127.16256,9.144,11.5824,  !- X,Y,Z ==> Vertex 2 {m}
    136.30656,0,11.5824,  !- X,Y,Z ==> Vertex 3 {m}
    136.30656,0,12.8016;  !- X,Y,Z ==> Vertex 4 {m}

  BuildingSurface:Detailed,
    E4 NE Wall (M.S19.I58)-mirror Reversed,  !- Name
    Wall,                    !- Surface Type
    Interior Wall,           !- Construction Name
    E4 South Perim Plnm (M.S19),  !- Zone Name
    ,                        !- Space Name
    Surface,                 !- Outside Boundary Condition
    E4 NE Wall (M.S19.I58)-mirror,  !- Outside Boundary Condition Object
    NoSun,                   !- Sun Exposure
    NoWind,                  !- Wind Exposure
    ,                        !- View Factor to Ground
    4,                       !- Number of Vertices
    136.30656,0,12.8016,  !- X,Y,Z ==> Vertex 1 {m}
    136.30656,0,11.5824,  !- X,Y,Z ==> Vertex 2 {m}
    127.16256,9.144,11.5824,  !- X,Y,Z ==> Vertex 3 {m}
    127.16256,9.144,12.8016;  !- X,Y,Z ==> Vertex 4 {m}

  BuildingSurface:Detailed,
    E4 NE Wall (T.S25.I70)-mirror,  !- Name
    Wall,                    !- Surface Type
    Interior Wall,           !- Construction Name
    Classroom E4 East Perim (T.E26),  !- Zone Name
    ,                        !- Space Name
    Surface,                 !- Outside Boundary Condition
    E4 NE Wall (T.S25.I70)-mirror Reversed,  !- Outside Boundary Condition Object
    NoSun,                   !- Sun Exposure
    NoWind,                  !- Wind Exposure
    ,                        !- View Factor to Ground
    4,                       !- Number of Vertices
    127.16256,9.144,15.8496,  !- X,Y,Z ==> Vertex 1 {m}
    127.16256,9.144,12.8016,  !- X,Y,Z ==> Vertex 2 {m}
    136.30656,0,12.8016,  !- X,Y,Z ==> Vertex 3 {m}
    136.30656,0,15.8496;  !- X,Y,Z ==> Vertex 4 {m}

  BuildingSurface:Detailed,
    E4 NE Wall (T.S25.I70)-mirror Reversed,  !- Name
    Wall,                    !- Surface Type
    Interior Wall,           !- Construction Name
    Classroom E4 South Perim (T.S25),  !- Zone Name
    ,                        !- Space Name
    Surface,                 !- Outside Boundary Condition
    E4 NE Wall (T.S25.I70)-mirror,  !- Outside Boundary Condition Object
    NoSun,                   !- Sun Exposure
    NoWind,                  !- Wind Exposure
    ,                        !- View Factor to Ground
    4,                       !- Number of Vertices
    136.30656,0,15.8496,  !- X,Y,Z ==> Vertex 1 {m}
    136.30656,0,12.8016,  !- X,Y,Z ==> Vertex 2 {m}
    127.16256,9.144,12.8016,  !- X,Y,Z ==> Vertex 3 {m}
    127.16256,9.144,15.8496;  !- X,Y,Z ==> Vertex 4 {m}

  BuildingSurface:Detailed,
    E4 NE Wall (T.S31.I92)-mirror,  !- Name
    Wall,                    !- Surface Type
    Interior Wall,           !- Construction Name
    E4 East Perim Plnm (T.E32),  !- Zone Name
    ,                        !- Space Name
    Surface,                 !- Outside Boundary Condition
    E4 NE Wall (T.S31.I92)-mirror Reversed,  !- Outside Boundary Condition Object
    NoSun,                   !- Sun Exposure
    NoWind,                  !- Wind Exposure
    ,                        !- View Factor to Ground
    4,                       !- Number of Vertices
    127.16256,9.144,17.0688,  !- X,Y,Z ==> Vertex 1 {m}
    127.16256,9.144,15.8496,  !- X,Y,Z ==> Vertex 2 {m}
    136.30656,0,15.8496,  !- X,Y,Z ==> Vertex 3 {m}
    136.30656,0,17.0688;  !- X,Y,Z ==> Vertex 4 {m}

  BuildingSurface:Detailed,
    E4 NE Wall (T.S31.I92)-mirror Reversed,  !- Name
    Wall,                    !- Surface Type
    Interior Wall,           !- Construction Name
    E4 South Perim Plnm (T.S31),  !- Zone Name
    ,                        !- Space Name
    Surface,                 !- Outside Boundary Condition
    E4 NE Wall (T.S31.I92)-mirror,  !- Outside Boundary Condition Object
    NoSun,                   !- Sun Exposure
    NoWind,                  !- Wind Exposure
    ,                        !- View Factor to Ground
    4,                       !- Number of Vertices
    136.30656,0,17.0688,  !- X,Y,Z ==> Vertex 1 {m}
    136.30656,0,15.8496,  !- X,Y,Z ==> Vertex 2 {m}
    127.16256,9.144,15.8496,  !- X,Y,Z ==> Vertex 3 {m}
    127.16256,9.144,17.0688;  !- X,Y,Z ==> Vertex 4 {m}

  BuildingSurface:Detailed,
    E4 NW Wall (G.S1.I5),    !- Name
    Wall,                    !- Surface Type
    Interior Wall,           !- Construction Name
    Classroom E4 South Perim (G.S1),  !- Zone Name
    ,                        !- Space Name
    Surface,                 !- Outside Boundary Condition
    E4 NW Wall (G.S1.I5) Reversed,  !- Outside Boundary Condition Object
    NoSun,                   !- Sun Exposure
    NoWind,                  !- Wind Exposure
    ,                        !- View Factor to Ground
    4,                       !- Number of Vertices
    9.144,9.144,7.3152,  !- X,Y,Z ==> Vertex 1 {m}
    9.144,9.144,4.2672,  !- X,Y,Z ==> Vertex 2 {m}
    0,0,4.2672,  !- X,Y,Z ==> Vertex 3 {m}
    0,0,7.3152;  !- X,Y,Z ==> Vertex 4 {m}

  BuildingSurface:Detailed,
    E4 NW Wall (G.S1.I5) Reversed,  !- Name
    Wall,                    !- Surface Type
    Interior Wall,           !- Construction Name
    Classroom E4 West Perim (G.W4),  !- Zone Name
    ,                        !- Space Name
    Surface,                 !- Outside Boundary Condition
    E4 NW Wall (G.S1.I5),    !- Outside Boundary Condition Object
    NoSun,                   !- Sun Exposure
    NoWind,                  !- Wind Exposure
    ,                        !- View Factor to Ground
    4,                       !- Number of Vertices
    0,0,7.3152,  !- X,Y,Z ==> Vertex 1 {m}
    0,0,4.2672,  !- X,Y,Z ==> Vertex 2 {m}
    9.144,9.144,4.2672,  !- X,Y,Z ==> Vertex 3 {m}
    9.144,9.144,7.3152;  !- X,Y,Z ==> Vertex 4 {m}

  BuildingSurface:Detailed,
    E4 NW Wall (G.S7.I27),   !- Name
    Wall,                    !- Surface Type
    Interior Wall,           !- Construction Name
    E4 South Perim Plnm (G.S7),  !- Zone Name
    ,                        !- Space Name
    Surface,                 !- Outside Boundary Condition
    E4 NW Wall (G.S7.I27) Reversed,  !- Outside Boundary Condition Object
    NoSun,                   !- Sun Exposure
    NoWind,                  !- Wind Exposure
    ,                        !- View Factor to Ground
    4,                       !- Number of Vertices
    9.144,9.144,8.5344,  !- X,Y,Z ==> Vertex 1 {m}
    9.144,9.144,7.3152,  !- X,Y,Z ==> Vertex 2 {m}
    0,0,7.3152,  !- X,Y,Z ==> Vertex 3 {m}
    0,0,8.5344;  !- X,Y,Z ==> Vertex 4 {m}

  BuildingSurface:Detailed,
    E4 NW Wall (G.S7.I27) Reversed,  !- Name
    Wall,                    !- Surface Type
    Interior Wall,           !- Construction Name
    E4 West Perim Plnm (G.W10),  !- Zone Name
    ,                        !- Space Name
    Surface,                 !- Outside Boundary Condition
    E4 NW Wall (G.S7.I27),   !- Outside Boundary Condition Object
    NoSun,                   !- Sun Exposure
    NoWind,                  !- Wind Exposure
    ,                        !- View Factor to Ground
    4,                       !- Number of Vertices
    0,0,8.5344,  !- X,Y,Z ==> Vertex 1 {m}
    0,0,7.3152,  !- X,Y,Z ==> Vertex 2 {m}
    9.144,9.144,7.3152,  !- X,Y,Z ==> Vertex 3 {m}
    9.144,9.144,8.5344;  !- X,Y,Z ==> Vertex 4 {m}

  BuildingSurface:Detailed,
    E4 NW Wall (M.S13.I39),  !- Name
    Wall,                    !- Surface Type
    Interior Wall,           !- Construction Name
    Classroom E4 South Perim (M.S13),  !- Zone Name
    ,                        !- Space Name
    Surface,                 !- Outside Boundary Condition
    E4 NW Wall (M.S13.I39) Reversed,  !- Outside Boundary Condition Object
    NoSun,                   !- Sun Exposure
    NoWind,                  !- Wind Exposure
    ,                        !- View Factor to Ground
    4,                       !- Number of Vertices
    9.144,9.144,11.5824,  !- X,Y,Z ==> Vertex 1 {m}
    9.144,9.144,8.5344,  !- X,Y,Z ==> Vertex 2 {m}
    0,0,8.5344,  !- X,Y,Z ==> Vertex 3 {m}
    0,0,11.5824;  !- X,Y,Z ==> Vertex 4 {m}

  BuildingSurface:Detailed,
    E4 NW Wall (M.S13.I39) Reversed,  !- Name
    Wall,                    !- Surface Type
    Interior Wall,           !- Construction Name
    Classroom E4 West Perim (M.W16),  !- Zone Name
    ,                        !- Space Name
    Surface,                 !- Outside Boundary Condition
    E4 NW Wall (M.S13.I39),  !- Outside Boundary Condition Object
    NoSun,                   !- Sun Exposure
    NoWind,                  !- Wind Exposure
    ,                        !- View Factor to Ground
    4,                       !- Number of Vertices
    0,0,11.5824,  !- X,Y,Z ==> Vertex 1 {m}
    0,0,8.5344,  !- X,Y,Z ==> Vertex 2 {m}
    9.144,9.144,8.5344,  !- X,Y,Z ==> Vertex 3 {m}
    9.144,9.144,11.5824;  !- X,Y,Z ==> Vertex 4 {m}

  BuildingSurface:Detailed,
    E4 NW Wall (M.S19.I61),  !- Name
    Wall,                    !- Surface Type
    Interior Wall,           !- Construction Name
    E4 South Perim Plnm (M.S19),  !- Zone Name
    ,                        !- Space Name
    Surface,                 !- Outside Boundary Condition
    E4 NW Wall (M.S19.I61) Reversed,  !- Outside Boundary Condition Object
    NoSun,                   !- Sun Exposure
    NoWind,                  !- Wind Exposure
    ,                        !- View Factor to Ground
    4,                       !- Number of Vertices
    9.144,9.144,12.8016,  !- X,Y,Z ==> Vertex 1 {m}
    9.144,9.144,11.5824,  !- X,Y,Z ==> Vertex 2 {m}
    0,0,11.5824,  !- X,Y,Z ==> Vertex 3 {m}
    0,0,12.8016;  !- X,Y,Z ==> Vertex 4 {m}

  BuildingSurface:Detailed,
    E4 NW Wall (M.S19.I61) Reversed,  !- Name
    Wall,                    !- Surface Type
    Interior Wall,           !- Construction Name
    E4 West Perim Plnm (M.W22),  !- Zone Name
    ,                        !- Space Name
    Surface,                 !- Outside Boundary Condition
    E4 NW Wall (M.S19.I61),  !- Outside Boundary Condition Object
    NoSun,                   !- Sun Exposure
    NoWind,                  !- Wind Exposure
    ,                        !- View Factor to Ground
    4,                       !- Number of Vertices
    0,0,12.8016,  !- X,Y,Z ==> Vertex 1 {m}
    0,0,11.5824,  !- X,Y,Z ==> Vertex 2 {m}
    9.144,9.144,11.5824,  !- X,Y,Z ==> Vertex 3 {m}
    9.144,9.144,12.8016;  !- X,Y,Z ==> Vertex 4 {m}

  BuildingSurface:Detailed,
    E4 NW Wall (T.S25.I73),  !- Name
    Wall,                    !- Surface Type
    Interior Wall,           !- Construction Name
    Classroom E4 South Perim (T.S25),  !- Zone Name
    ,                        !- Space Name
    Surface,                 !- Outside Boundary Condition
    E4 NW Wall (T.S25.I73) Reversed,  !- Outside Boundary Condition Object
    NoSun,                   !- Sun Exposure
    NoWind,                  !- Wind Exposure
    ,                        !- View Factor to Ground
    4,                       !- Number of Vertices
    9.144,9.144,15.8496,  !- X,Y,Z ==> Vertex 1 {m}
    9.144,9.144,12.8016,  !- X,Y,Z ==> Vertex 2 {m}
    0,0,12.8016,  !- X,Y,Z ==> Vertex 3 {m}
    0,0,15.8496;  !- X,Y,Z ==> Vertex 4 {m}

  BuildingSurface:Detailed,
    E4 NW Wall (T.S25.I73) Reversed,  !- Name
    Wall,                    !- Surface Type
    Interior Wall,           !- Construction Name
    Classroom E4 West Perim (T.W28),  !- Zone Name
    ,                        !- Space Name
    Surface,                 !- Outside Boundary Condition
    E4 NW Wall (T.S25.I73),  !- Outside Boundary Condition Object
    NoSun,                   !- Sun Exposure
    NoWind,                  !- Wind Exposure
    ,                        !- View Factor to Ground
    4,                       !- Number of Vertices
    0,0,15.8496,  !- X,Y,Z ==> Vertex 1 {m}
    0,0,12.8016,  !- X,Y,Z ==> Vertex 2 {m}
    9.144,9.144,12.8016,  !- X,Y,Z ==> Vertex 3 {m}
    9.144,9.144,15.8496;  !- X,Y,Z ==> Vertex 4 {m}

  BuildingSurface:Detailed,
    E4 NW Wall (T.S31.I95),  !- Name
    Wall,                    !- Surface Type
    Interior Wall,           !- Construction Name
    E4 South Perim Plnm (T.S31),  !- Zone Name
    ,                        !- Space Name
    Surface,                 !- Outside Boundary Condition
    E4 NW Wall (T.S31.I95) Reversed,  !- Outside Boundary Condition Object
    NoSun,                   !- Sun Exposure
    NoWind,                  !- Wind Exposure
    ,                        !- View Factor to Ground
    4,                       !- Number of Vertices
    9.144,9.144,17.0688,  !- X,Y,Z ==> Vertex 1 {m}
    9.144,9.144,15.8496,  !- X,Y,Z ==> Vertex 2 {m}
    0,0,15.8496,  !- X,Y,Z ==> Vertex 3 {m}
    0,0,17.0688;  !- X,Y,Z ==> Vertex 4 {m}

  BuildingSurface:Detailed,
    E4 NW Wall (T.S31.I95) Reversed,  !- Name
    Wall,                    !- Surface Type
    Interior Wall,           !- Construction Name
    E4 West Perim Plnm (T.W34),  !- Zone Name
    ,                        !- Space Name
    Surface,                 !- Outside Boundary Condition
    E4 NW Wall (T.S31.I95),  !- Outside Boundary Condition Object
    NoSun,                   !- Sun Exposure
    NoWind,                  !- Wind Exposure
    ,                        !- View Factor to Ground
    4,                       !- Number of Vertices
    0,0,17.0688,  !- X,Y,Z ==> Vertex 1 {m}
    0,0,15.8496,  !- X,Y,Z ==> Vertex 2 {m}
    9.144,9.144,15.8496,  !- X,Y,Z ==> Vertex 3 {m}
    9.144,9.144,17.0688;  !- X,Y,Z ==> Vertex 4 {m}

  BuildingSurface:Detailed,
    E4 North Perim Spc (G.N3) - Floor_a,  !- Name
    Floor,                   !- Surface Type
    Interior Floor,          !- Construction Name
    Classroom E4 North Perim (G.N3),  !- Zone Name
    ,                        !- Space Name
    Surface,                 !- Outside Boundary Condition
    E4 North Perim Spc (G.N3) - Floor_a Reversed,  !- Outside Boundary Condition Object
    NoSun,                   !- Sun Exposure
    NoWind,                  !- Wind Exposure
    ,                        !- View Factor to Ground
    4,                       !- Number of Vertices
    136.30656,68.15328,4.2672,  !- X,Y,Z ==> Vertex 1 {m}
    127.16256,59.00928,4.2672,  !- X,Y,Z ==> Vertex 2 {m}
    112.97412,59.00928,4.2672,  !- X,Y,Z ==> Vertex 3 {m}
    112.97412,68.15328,4.2672;  !- X,Y,Z ==> Vertex 4 {m}

  BuildingSurface:Detailed,
    E4 North Perim Spc (G.N3) - Floor_a Reversed,  !- Name
    Ceiling,                 !- Surface Type
    Radiant Interior Ceiling,!- Construction Name
    Kitchen E3 North Perim (G.N2),  !- Zone Name
    ,                        !- Space Name
    Surface,                 !- Outside Boundary Condition
    E4 North Perim Spc (G.N3) - Floor_a,  !- Outside Boundary Condition Object
    NoSun,                   !- Sun Exposure
    NoWind,                  !- Wind Exposure
    ,                        !- View Factor to Ground
    4,                       !- Number of Vertices
    112.97412,68.15328,4.2672,  !- X,Y,Z ==> Vertex 1 {m}
    112.97412,59.00928,4.2672,  !- X,Y,Z ==> Vertex 2 {m}
    127.16256,59.00928,4.2672,  !- X,Y,Z ==> Vertex 3 {m}
    136.30656,68.15328,4.2672;  !- X,Y,Z ==> Vertex 4 {m}

  BuildingSurface:Detailed,
    E4 North Perim Spc (G.N3) - Floor_b,  !- Name
    Floor,                   !- Surface Type
    Interior Floor,          !- Construction Name
    Classroom E4 North Perim (G.N3),  !- Zone Name
    ,                        !- Space Name
    Surface,                 !- Outside Boundary Condition
    E4 North Perim Spc (G.N3) - Floor_b Reversed,  !- Outside Boundary Condition Object
    NoSun,                   !- Sun Exposure
    NoWind,                  !- Wind Exposure
    ,                        !- View Factor to Ground
    4,                       !- Number of Vertices
    112.97412,68.15328,4.2672,  !- X,Y,Z ==> Vertex 1 {m}
    112.97412,59.00928,4.2672,  !- X,Y,Z ==> Vertex 2 {m}
    54.52872,59.00928,4.2672,  !- X,Y,Z ==> Vertex 3 {m}
    54.52872,68.15328,4.2672;  !- X,Y,Z ==> Vertex 4 {m}

  BuildingSurface:Detailed,
    E4 North Perim Spc (G.N3) - Floor_b Reversed,  !- Name
    Ceiling,                 !- Surface Type
    Radiant Interior Ceiling,!- Construction Name
    E2 North Perim Plnm (G.N6),  !- Zone Name
    ,                        !- Space Name
    Surface,                 !- Outside Boundary Condition
    E4 North Perim Spc (G.N3) - Floor_b,  !- Outside Boundary Condition Object
    NoSun,                   !- Sun Exposure
    NoWind,                  !- Wind Exposure
    ,                        !- View Factor to Ground
    4,                       !- Number of Vertices
    54.52872,68.15328,4.2672,  !- X,Y,Z ==> Vertex 1 {m}
    54.52872,59.00928,4.2672,  !- X,Y,Z ==> Vertex 2 {m}
    112.97412,59.00928,4.2672,  !- X,Y,Z ==> Vertex 3 {m}
    112.97412,68.15328,4.2672;  !- X,Y,Z ==> Vertex 4 {m}

  BuildingSurface:Detailed,
    E4 North Wall (G.N3.E3), !- Name
    Wall,                    !- Surface Type
    Exterior Wall,           !- Construction Name
    Classroom E4 North Perim (G.N3),  !- Zone Name
    ,                        !- Space Name
    Outdoors,                !- Outside Boundary Condition
    ,                        !- Outside Boundary Condition Object
    SunExposed,              !- Sun Exposure
    WindExposed,             !- Wind Exposure
    ,                        !- View Factor to Ground
    4,                       !- Number of Vertices
    136.30656,68.15328,7.3152,  !- X,Y,Z ==> Vertex 1 {m}
    136.30656,68.15328,4.2672,  !- X,Y,Z ==> Vertex 2 {m}
    0,68.15328,4.2672,  !- X,Y,Z ==> Vertex 3 {m}
    0,68.15328,7.3152;  !- X,Y,Z ==> Vertex 4 {m}

  BuildingSurface:Detailed,
    E4 North Wall (G.N9.E7), !- Name
    Wall,                    !- Surface Type
    Exterior Wall,           !- Construction Name
    E4 North Perim Plnm (G.N9),  !- Zone Name
    ,                        !- Space Name
    Outdoors,                !- Outside Boundary Condition
    ,                        !- Outside Boundary Condition Object
    SunExposed,              !- Sun Exposure
    WindExposed,             !- Wind Exposure
    ,                        !- View Factor to Ground
    4,                       !- Number of Vertices
    136.30656,68.15328,8.5344,  !- X,Y,Z ==> Vertex 1 {m}
    136.30656,68.15328,7.3152,  !- X,Y,Z ==> Vertex 2 {m}
    0,68.15328,7.3152,  !- X,Y,Z ==> Vertex 3 {m}
    0,68.15328,8.5344;  !- X,Y,Z ==> Vertex 4 {m}

  BuildingSurface:Detailed,
    E4 North Wall (G.S1.I3)-mirror,  !- Name
    Wall,                    !- Surface Type
    Interior Wall,           !- Construction Name
    Office E4 Core (G.C6),   !- Zone Name
    ,                        !- Space Name
    Surface,                 !- Outside Boundary Condition
    E4 North Wall (G.S1.I3)-mirror Reversed,  !- Outside Boundary Condition Object
    NoSun,                   !- Sun Exposure
    NoWind,                  !- Wind Exposure
    ,                        !- View Factor to Ground
    4,                       !- Number of Vertices
    20.94588648,9.144,7.3152,  !- X,Y,Z ==> Vertex 1 {m}
    20.94588648,9.144,4.2672,  !- X,Y,Z ==> Vertex 2 {m}
    127.16256,9.144,4.2672,  !- X,Y,Z ==> Vertex 3 {m}
    127.16256,9.144,7.3152;  !- X,Y,Z ==> Vertex 4 {m}

  BuildingSurface:Detailed,
    E4 North Wall (G.S1.I3)-mirror Reversed,  !- Name
    Wall,                    !- Surface Type
    Interior Wall,           !- Construction Name
    Classroom E4 South Perim (G.S1),  !- Zone Name
    ,                        !- Space Name
    Surface,                 !- Outside Boundary Condition
    E4 North Wall (G.S1.I3)-mirror,  !- Outside Boundary Condition Object
    NoSun,                   !- Sun Exposure
    NoWind,                  !- Wind Exposure
    ,                        !- View Factor to Ground
    4,                       !- Number of Vertices
    127.16256,9.144,7.3152,  !- X,Y,Z ==> Vertex 1 {m}
    127.16256,9.144,4.2672,  !- X,Y,Z ==> Vertex 2 {m}
    20.94588648,9.144,4.2672,  !- X,Y,Z ==> Vertex 3 {m}
    20.94588648,9.144,7.3152;  !- X,Y,Z ==> Vertex 4 {m}

  BuildingSurface:Detailed,
    E4 North Wall (G.S1.I4)-mirror,  !- Name
    Wall,                    !- Surface Type
    Interior Wall,           !- Construction Name
    Computer E4 Core (G.C5), !- Zone Name
    ,                        !- Space Name
    Surface,                 !- Outside Boundary Condition
    E4 North Wall (G.S1.I4)-mirror Reversed,  !- Outside Boundary Condition Object
    NoSun,                   !- Sun Exposure
    NoWind,                  !- Wind Exposure
    ,                        !- View Factor to Ground
    4,                       !- Number of Vertices
    9.144,9.144,7.3152,  !- X,Y,Z ==> Vertex 1 {m}
    9.144,9.144,4.2672,  !- X,Y,Z ==> Vertex 2 {m}
    20.94588648,9.144,4.2672,  !- X,Y,Z ==> Vertex 3 {m}
    20.94588648,9.144,7.3152;  !- X,Y,Z ==> Vertex 4 {m}

  BuildingSurface:Detailed,
    E4 North Wall (G.S1.I4)-mirror Reversed,  !- Name
    Wall,                    !- Surface Type
    Interior Wall,           !- Construction Name
    Classroom E4 South Perim (G.S1),  !- Zone Name
    ,                        !- Space Name
    Surface,                 !- Outside Boundary Condition
    E4 North Wall (G.S1.I4)-mirror,  !- Outside Boundary Condition Object
    NoSun,                   !- Sun Exposure
    NoWind,                  !- Wind Exposure
    ,                        !- View Factor to Ground
    4,                       !- Number of Vertices
    20.94588648,9.144,7.3152,  !- X,Y,Z ==> Vertex 1 {m}
    20.94588648,9.144,4.2672,  !- X,Y,Z ==> Vertex 2 {m}
    9.144,9.144,4.2672,  !- X,Y,Z ==> Vertex 3 {m}
    9.144,9.144,7.3152;  !- X,Y,Z ==> Vertex 4 {m}

  BuildingSurface:Detailed,
    E4 North Wall (G.S7.I25)-mirror,  !- Name
    Wall,                    !- Surface Type
    Interior Wall,           !- Construction Name
    E4 Core Plnm (G.C12),    !- Zone Name
    ,                        !- Space Name
    Surface,                 !- Outside Boundary Condition
    E4 North Wall (G.S7.I25)-mirror Reversed,  !- Outside Boundary Condition Object
    NoSun,                   !- Sun Exposure
    NoWind,                  !- Wind Exposure
    ,                        !- View Factor to Ground
    4,                       !- Number of Vertices
    20.94588648,9.144,8.5344,  !- X,Y,Z ==> Vertex 1 {m}
    20.94588648,9.144,7.3152,  !- X,Y,Z ==> Vertex 2 {m}
    127.16256,9.144,7.3152,  !- X,Y,Z ==> Vertex 3 {m}
    127.16256,9.144,8.5344;  !- X,Y,Z ==> Vertex 4 {m}

  BuildingSurface:Detailed,
    E4 North Wall (G.S7.I25)-mirror Reversed,  !- Name
    Wall,                    !- Surface Type
    Interior Wall,           !- Construction Name
    E4 South Perim Plnm (G.S7),  !- Zone Name
    ,                        !- Space Name
    Surface,                 !- Outside Boundary Condition
    E4 North Wall (G.S7.I25)-mirror,  !- Outside Boundary Condition Object
    NoSun,                   !- Sun Exposure
    NoWind,                  !- Wind Exposure
    ,                        !- View Factor to Ground
    4,                       !- Number of Vertices
    127.16256,9.144,8.5344,  !- X,Y,Z ==> Vertex 1 {m}
    127.16256,9.144,7.3152,  !- X,Y,Z ==> Vertex 2 {m}
    20.94588648,9.144,7.3152,  !- X,Y,Z ==> Vertex 3 {m}
    20.94588648,9.144,8.5344;  !- X,Y,Z ==> Vertex 4 {m}

  BuildingSurface:Detailed,
    E4 North Wall (G.S7.I26)-mirror,  !- Name
    Wall,                    !- Surface Type
    Interior Wall,           !- Construction Name
    E4 Core Plnm (G.C11),    !- Zone Name
    ,                        !- Space Name
    Surface,                 !- Outside Boundary Condition
    E4 North Wall (G.S7.I26)-mirror Reversed,  !- Outside Boundary Condition Object
    NoSun,                   !- Sun Exposure
    NoWind,                  !- Wind Exposure
    ,                        !- View Factor to Ground
    4,                       !- Number of Vertices
    9.144,9.144,8.5344,  !- X,Y,Z ==> Vertex 1 {m}
    9.144,9.144,7.3152,  !- X,Y,Z ==> Vertex 2 {m}
    20.94588648,9.144,7.3152,  !- X,Y,Z ==> Vertex 3 {m}
    20.94588648,9.144,8.5344;  !- X,Y,Z ==> Vertex 4 {m}

  BuildingSurface:Detailed,
    E4 North Wall (G.S7.I26)-mirror Reversed,  !- Name
    Wall,                    !- Surface Type
    Interior Wall,           !- Construction Name
    E4 South Perim Plnm (G.S7),  !- Zone Name
    ,                        !- Space Name
    Surface,                 !- Outside Boundary Condition
    E4 North Wall (G.S7.I26)-mirror,  !- Outside Boundary Condition Object
    NoSun,                   !- Sun Exposure
    NoWind,                  !- Wind Exposure
    ,                        !- View Factor to Ground
    4,                       !- Number of Vertices
    20.94588648,9.144,8.5344,  !- X,Y,Z ==> Vertex 1 {m}
    20.94588648,9.144,7.3152,  !- X,Y,Z ==> Vertex 2 {m}
    9.144,9.144,7.3152,  !- X,Y,Z ==> Vertex 3 {m}
    9.144,9.144,8.5344;  !- X,Y,Z ==> Vertex 4 {m}

  BuildingSurface:Detailed,
    E4 North Wall (M.N15.E11),  !- Name
    Wall,                    !- Surface Type
    Exterior Wall,           !- Construction Name
    Classroom E4 North Perim (M.N15),  !- Zone Name
    ,                        !- Space Name
    Outdoors,                !- Outside Boundary Condition
    ,                        !- Outside Boundary Condition Object
    SunExposed,              !- Sun Exposure
    WindExposed,             !- Wind Exposure
    ,                        !- View Factor to Ground
    4,                       !- Number of Vertices
    136.30656,68.15328,11.5824,  !- X,Y,Z ==> Vertex 1 {m}
    136.30656,68.15328,8.5344,  !- X,Y,Z ==> Vertex 2 {m}
    0,68.15328,8.5344,  !- X,Y,Z ==> Vertex 3 {m}
    0,68.15328,11.5824;  !- X,Y,Z ==> Vertex 4 {m}

  BuildingSurface:Detailed,
    E4 North Wall (M.N21.E15),  !- Name
    Wall,                    !- Surface Type
    Exterior Wall,           !- Construction Name
    E4 North Perim Plnm (M.N21),  !- Zone Name
    ,                        !- Space Name
    Outdoors,                !- Outside Boundary Condition
    ,                        !- Outside Boundary Condition Object
    SunExposed,              !- Sun Exposure
    WindExposed,             !- Wind Exposure
    ,                        !- View Factor to Ground
    4,                       !- Number of Vertices
    136.30656,68.15328,12.8016,  !- X,Y,Z ==> Vertex 1 {m}
    136.30656,68.15328,11.5824,  !- X,Y,Z ==> Vertex 2 {m}
    0,68.15328,11.5824,  !- X,Y,Z ==> Vertex 3 {m}
    0,68.15328,12.8016;  !- X,Y,Z ==> Vertex 4 {m}

  BuildingSurface:Detailed,
    E4 North Wall (M.S13.I37)-mirror,  !- Name
    Wall,                    !- Surface Type
    Interior Wall,           !- Construction Name
    Office E4 Core (M.C18),  !- Zone Name
    ,                        !- Space Name
    Surface,                 !- Outside Boundary Condition
    E4 North Wall (M.S13.I37)-mirror Reversed,  !- Outside Boundary Condition Object
    NoSun,                   !- Sun Exposure
    NoWind,                  !- Wind Exposure
    ,                        !- View Factor to Ground
    4,                       !- Number of Vertices
    20.94588648,9.144,11.5824,  !- X,Y,Z ==> Vertex 1 {m}
    20.94588648,9.144,8.5344,  !- X,Y,Z ==> Vertex 2 {m}
    127.16256,9.144,8.5344,  !- X,Y,Z ==> Vertex 3 {m}
    127.16256,9.144,11.5824;  !- X,Y,Z ==> Vertex 4 {m}

  BuildingSurface:Detailed,
    E4 North Wall (M.S13.I37)-mirror Reversed,  !- Name
    Wall,                    !- Surface Type
    Interior Wall,           !- Construction Name
    Classroom E4 South Perim (M.S13),  !- Zone Name
    ,                        !- Space Name
    Surface,                 !- Outside Boundary Condition
    E4 North Wall (M.S13.I37)-mirror,  !- Outside Boundary Condition Object
    NoSun,                   !- Sun Exposure
    NoWind,                  !- Wind Exposure
    ,                        !- View Factor to Ground
    4,                       !- Number of Vertices
    127.16256,9.144,11.5824,  !- X,Y,Z ==> Vertex 1 {m}
    127.16256,9.144,8.5344,  !- X,Y,Z ==> Vertex 2 {m}
    20.94588648,9.144,8.5344,  !- X,Y,Z ==> Vertex 3 {m}
    20.94588648,9.144,11.5824;  !- X,Y,Z ==> Vertex 4 {m}

  BuildingSurface:Detailed,
    E4 North Wall (M.S13.I38)-mirror,  !- Name
    Wall,                    !- Surface Type
    Interior Wall,           !- Construction Name
    Computer E4 Core (M.C17),!- Zone Name
    ,                        !- Space Name
    Surface,                 !- Outside Boundary Condition
    E4 North Wall (M.S13.I38)-mirror Reversed,  !- Outside Boundary Condition Object
    NoSun,                   !- Sun Exposure
    NoWind,                  !- Wind Exposure
    ,                        !- View Factor to Ground
    4,                       !- Number of Vertices
    9.144,9.144,11.5824,  !- X,Y,Z ==> Vertex 1 {m}
    9.144,9.144,8.5344,  !- X,Y,Z ==> Vertex 2 {m}
    20.94588648,9.144,8.5344,  !- X,Y,Z ==> Vertex 3 {m}
    20.94588648,9.144,11.5824;  !- X,Y,Z ==> Vertex 4 {m}

  BuildingSurface:Detailed,
    E4 North Wall (M.S13.I38)-mirror Reversed,  !- Name
    Wall,                    !- Surface Type
    Interior Wall,           !- Construction Name
    Classroom E4 South Perim (M.S13),  !- Zone Name
    ,                        !- Space Name
    Surface,                 !- Outside Boundary Condition
    E4 North Wall (M.S13.I38)-mirror,  !- Outside Boundary Condition Object
    NoSun,                   !- Sun Exposure
    NoWind,                  !- Wind Exposure
    ,                        !- View Factor to Ground
    4,                       !- Number of Vertices
    20.94588648,9.144,11.5824,  !- X,Y,Z ==> Vertex 1 {m}
    20.94588648,9.144,8.5344,  !- X,Y,Z ==> Vertex 2 {m}
    9.144,9.144,8.5344,  !- X,Y,Z ==> Vertex 3 {m}
    9.144,9.144,11.5824;  !- X,Y,Z ==> Vertex 4 {m}

  BuildingSurface:Detailed,
    E4 North Wall (M.S19.I59)-mirror,  !- Name
    Wall,                    !- Surface Type
    Interior Wall,           !- Construction Name
    E4 Core Plnm (M.C24),    !- Zone Name
    ,                        !- Space Name
    Surface,                 !- Outside Boundary Condition
    E4 North Wall (M.S19.I59)-mirror Reversed,  !- Outside Boundary Condition Object
    NoSun,                   !- Sun Exposure
    NoWind,                  !- Wind Exposure
    ,                        !- View Factor to Ground
    4,                       !- Number of Vertices
    20.94588648,9.144,12.8016,  !- X,Y,Z ==> Vertex 1 {m}
    20.94588648,9.144,11.5824,  !- X,Y,Z ==> Vertex 2 {m}
    127.16256,9.144,11.5824,  !- X,Y,Z ==> Vertex 3 {m}
    127.16256,9.144,12.8016;  !- X,Y,Z ==> Vertex 4 {m}

  BuildingSurface:Detailed,
    E4 North Wall (M.S19.I59)-mirror Reversed,  !- Name
    Wall,                    !- Surface Type
    Interior Wall,           !- Construction Name
    E4 South Perim Plnm (M.S19),  !- Zone Name
    ,                        !- Space Name
    Surface,                 !- Outside Boundary Condition
    E4 North Wall (M.S19.I59)-mirror,  !- Outside Boundary Condition Object
    NoSun,                   !- Sun Exposure
    NoWind,                  !- Wind Exposure
    ,                        !- View Factor to Ground
    4,                       !- Number of Vertices
    127.16256,9.144,12.8016,  !- X,Y,Z ==> Vertex 1 {m}
    127.16256,9.144,11.5824,  !- X,Y,Z ==> Vertex 2 {m}
    20.94588648,9.144,11.5824,  !- X,Y,Z ==> Vertex 3 {m}
    20.94588648,9.144,12.8016;  !- X,Y,Z ==> Vertex 4 {m}

  BuildingSurface:Detailed,
    E4 North Wall (M.S19.I60)-mirror,  !- Name
    Wall,                    !- Surface Type
    Interior Wall,           !- Construction Name
    E4 Core Plnm (M.C23),    !- Zone Name
    ,                        !- Space Name
    Surface,                 !- Outside Boundary Condition
    E4 North Wall (M.S19.I60)-mirror Reversed,  !- Outside Boundary Condition Object
    NoSun,                   !- Sun Exposure
    NoWind,                  !- Wind Exposure
    ,                        !- View Factor to Ground
    4,                       !- Number of Vertices
    9.144,9.144,12.8016,  !- X,Y,Z ==> Vertex 1 {m}
    9.144,9.144,11.5824,  !- X,Y,Z ==> Vertex 2 {m}
    20.94588648,9.144,11.5824,  !- X,Y,Z ==> Vertex 3 {m}
    20.94588648,9.144,12.8016;  !- X,Y,Z ==> Vertex 4 {m}

  BuildingSurface:Detailed,
    E4 North Wall (M.S19.I60)-mirror Reversed,  !- Name
    Wall,                    !- Surface Type
    Interior Wall,           !- Construction Name
    E4 South Perim Plnm (M.S19),  !- Zone Name
    ,                        !- Space Name
    Surface,                 !- Outside Boundary Condition
    E4 North Wall (M.S19.I60)-mirror,  !- Outside Boundary Condition Object
    NoSun,                   !- Sun Exposure
    NoWind,                  !- Wind Exposure
    ,                        !- View Factor to Ground
    4,                       !- Number of Vertices
    20.94588648,9.144,12.8016,  !- X,Y,Z ==> Vertex 1 {m}
    20.94588648,9.144,11.5824,  !- X,Y,Z ==> Vertex 2 {m}
    9.144,9.144,11.5824,  !- X,Y,Z ==> Vertex 3 {m}
    9.144,9.144,12.8016;  !- X,Y,Z ==> Vertex 4 {m}

  BuildingSurface:Detailed,
    E4 North Wall (T.N27.E19),  !- Name
    Wall,                    !- Surface Type
    Exterior Wall,           !- Construction Name
    Classroom E4 North Perim (T.N27),  !- Zone Name
    ,                        !- Space Name
    Outdoors,                !- Outside Boundary Condition
    ,                        !- Outside Boundary Condition Object
    SunExposed,              !- Sun Exposure
    WindExposed,             !- Wind Exposure
    ,                        !- View Factor to Ground
    4,                       !- Number of Vertices
    136.30656,68.15328,15.8496,  !- X,Y,Z ==> Vertex 1 {m}
    136.30656,68.15328,12.8016,  !- X,Y,Z ==> Vertex 2 {m}
    0,68.15328,12.8016,  !- X,Y,Z ==> Vertex 3 {m}
    0,68.15328,15.8496;  !- X,Y,Z ==> Vertex 4 {m}

  BuildingSurface:Detailed,
    E4 North Wall (T.N33.E25),  !- Name
    Wall,                    !- Surface Type
    Exterior Wall,           !- Construction Name
    E4 North Perim Plnm (T.N33),  !- Zone Name
    ,                        !- Space Name
    Outdoors,                !- Outside Boundary Condition
    ,                        !- Outside Boundary Condition Object
    SunExposed,              !- Sun Exposure
    WindExposed,             !- Wind Exposure
    ,                        !- View Factor to Ground
    4,                       !- Number of Vertices
    136.30656,68.15328,17.0688,  !- X,Y,Z ==> Vertex 1 {m}
    136.30656,68.15328,15.8496,  !- X,Y,Z ==> Vertex 2 {m}
    0,68.15328,15.8496,  !- X,Y,Z ==> Vertex 3 {m}
    0,68.15328,17.0688;  !- X,Y,Z ==> Vertex 4 {m}

  BuildingSurface:Detailed,
    E4 North Wall (T.S25.I71)-mirror,  !- Name
    Wall,                    !- Surface Type
    Interior Wall,           !- Construction Name
    Office E4 Core (T.C30),  !- Zone Name
    ,                        !- Space Name
    Surface,                 !- Outside Boundary Condition
    E4 North Wall (T.S25.I71)-mirror Reversed,  !- Outside Boundary Condition Object
    NoSun,                   !- Sun Exposure
    NoWind,                  !- Wind Exposure
    ,                        !- View Factor to Ground
    4,                       !- Number of Vertices
    20.94588648,9.144,15.8496,  !- X,Y,Z ==> Vertex 1 {m}
    20.94588648,9.144,12.8016,  !- X,Y,Z ==> Vertex 2 {m}
    127.16256,9.144,12.8016,  !- X,Y,Z ==> Vertex 3 {m}
    127.16256,9.144,15.8496;  !- X,Y,Z ==> Vertex 4 {m}

  BuildingSurface:Detailed,
    E4 North Wall (T.S25.I71)-mirror Reversed,  !- Name
    Wall,                    !- Surface Type
    Interior Wall,           !- Construction Name
    Classroom E4 South Perim (T.S25),  !- Zone Name
    ,                        !- Space Name
    Surface,                 !- Outside Boundary Condition
    E4 North Wall (T.S25.I71)-mirror,  !- Outside Boundary Condition Object
    NoSun,                   !- Sun Exposure
    NoWind,                  !- Wind Exposure
    ,                        !- View Factor to Ground
    4,                       !- Number of Vertices
    127.16256,9.144,15.8496,  !- X,Y,Z ==> Vertex 1 {m}
    127.16256,9.144,12.8016,  !- X,Y,Z ==> Vertex 2 {m}
    20.94588648,9.144,12.8016,  !- X,Y,Z ==> Vertex 3 {m}
    20.94588648,9.144,15.8496;  !- X,Y,Z ==> Vertex 4 {m}

  BuildingSurface:Detailed,
    E4 North Wall (T.S25.I72)-mirror,  !- Name
    Wall,                    !- Surface Type
    Interior Wall,           !- Construction Name
    Computer E4 Core (T.C29),!- Zone Name
    ,                        !- Space Name
    Surface,                 !- Outside Boundary Condition
    E4 North Wall (T.S25.I72)-mirror Reversed,  !- Outside Boundary Condition Object
    NoSun,                   !- Sun Exposure
    NoWind,                  !- Wind Exposure
    ,                        !- View Factor to Ground
    4,                       !- Number of Vertices
    9.144,9.144,15.8496,  !- X,Y,Z ==> Vertex 1 {m}
    9.144,9.144,12.8016,  !- X,Y,Z ==> Vertex 2 {m}
    20.94588648,9.144,12.8016,  !- X,Y,Z ==> Vertex 3 {m}
    20.94588648,9.144,15.8496;  !- X,Y,Z ==> Vertex 4 {m}

  BuildingSurface:Detailed,
    E4 North Wall (T.S25.I72)-mirror Reversed,  !- Name
    Wall,                    !- Surface Type
    Interior Wall,           !- Construction Name
    Classroom E4 South Perim (T.S25),  !- Zone Name
    ,                        !- Space Name
    Surface,                 !- Outside Boundary Condition
    E4 North Wall (T.S25.I72)-mirror,  !- Outside Boundary Condition Object
    NoSun,                   !- Sun Exposure
    NoWind,                  !- Wind Exposure
    ,                        !- View Factor to Ground
    4,                       !- Number of Vertices
    20.94588648,9.144,15.8496,  !- X,Y,Z ==> Vertex 1 {m}
    20.94588648,9.144,12.8016,  !- X,Y,Z ==> Vertex 2 {m}
    9.144,9.144,12.8016,  !- X,Y,Z ==> Vertex 3 {m}
    9.144,9.144,15.8496;  !- X,Y,Z ==> Vertex 4 {m}

  BuildingSurface:Detailed,
    E4 North Wall (T.S31.I93)-mirror,  !- Name
    Wall,                    !- Surface Type
    Interior Wall,           !- Construction Name
    E4 Core Plnm (T.C36),    !- Zone Name
    ,                        !- Space Name
    Surface,                 !- Outside Boundary Condition
    E4 North Wall (T.S31.I93)-mirror Reversed,  !- Outside Boundary Condition Object
    NoSun,                   !- Sun Exposure
    NoWind,                  !- Wind Exposure
    ,                        !- View Factor to Ground
    4,                       !- Number of Vertices
    20.94588648,9.144,17.0688,  !- X,Y,Z ==> Vertex 1 {m}
    20.94588648,9.144,15.8496,  !- X,Y,Z ==> Vertex 2 {m}
    127.16256,9.144,15.8496,  !- X,Y,Z ==> Vertex 3 {m}
    127.16256,9.144,17.0688;  !- X,Y,Z ==> Vertex 4 {m}

  BuildingSurface:Detailed,
    E4 North Wall (T.S31.I93)-mirror Reversed,  !- Name
    Wall,                    !- Surface Type
    Interior Wall,           !- Construction Name
    E4 South Perim Plnm (T.S31),  !- Zone Name
    ,                        !- Space Name
    Surface,                 !- Outside Boundary Condition
    E4 North Wall (T.S31.I93)-mirror,  !- Outside Boundary Condition Object
    NoSun,                   !- Sun Exposure
    NoWind,                  !- Wind Exposure
    ,                        !- View Factor to Ground
    4,                       !- Number of Vertices
    127.16256,9.144,17.0688,  !- X,Y,Z ==> Vertex 1 {m}
    127.16256,9.144,15.8496,  !- X,Y,Z ==> Vertex 2 {m}
    20.94588648,9.144,15.8496,  !- X,Y,Z ==> Vertex 3 {m}
    20.94588648,9.144,17.0688;  !- X,Y,Z ==> Vertex 4 {m}

  BuildingSurface:Detailed,
    E4 North Wall (T.S31.I94)-mirror,  !- Name
    Wall,                    !- Surface Type
    Interior Wall,           !- Construction Name
    E4 Core Plnm (T.C35),    !- Zone Name
    ,                        !- Space Name
    Surface,                 !- Outside Boundary Condition
    E4 North Wall (T.S31.I94)-mirror Reversed,  !- Outside Boundary Condition Object
    NoSun,                   !- Sun Exposure
    NoWind,                  !- Wind Exposure
    ,                        !- View Factor to Ground
    4,                       !- Number of Vertices
    9.144,9.144,17.0688,  !- X,Y,Z ==> Vertex 1 {m}
    9.144,9.144,15.8496,  !- X,Y,Z ==> Vertex 2 {m}
    20.94588648,9.144,15.8496,  !- X,Y,Z ==> Vertex 3 {m}
    20.94588648,9.144,17.0688;  !- X,Y,Z ==> Vertex 4 {m}

  BuildingSurface:Detailed,
    E4 North Wall (T.S31.I94)-mirror Reversed,  !- Name
    Wall,                    !- Surface Type
    Interior Wall,           !- Construction Name
    E4 South Perim Plnm (T.S31),  !- Zone Name
    ,                        !- Space Name
    Surface,                 !- Outside Boundary Condition
    E4 North Wall (T.S31.I94)-mirror,  !- Outside Boundary Condition Object
    NoSun,                   !- Sun Exposure
    NoWind,                  !- Wind Exposure
    ,                        !- View Factor to Ground
    4,                       !- Number of Vertices
    20.94588648,9.144,17.0688,  !- X,Y,Z ==> Vertex 1 {m}
    20.94588648,9.144,15.8496,  !- X,Y,Z ==> Vertex 2 {m}
    9.144,9.144,15.8496,  !- X,Y,Z ==> Vertex 3 {m}
    9.144,9.144,17.0688;  !- X,Y,Z ==> Vertex 4 {m}

  BuildingSurface:Detailed,
    E4 Roof (T.C35.E29),     !- Name
    Roof,                    !- Surface Type
    Exterior Roof,           !- Construction Name
    E4 Core Plnm (T.C35),    !- Zone Name
    ,                        !- Space Name
    Outdoors,                !- Outside Boundary Condition
    ,                        !- Outside Boundary Condition Object
    SunExposed,              !- Sun Exposure
    WindExposed,             !- Wind Exposure
    ,                        !- View Factor to Ground
    4,                       !- Number of Vertices
    9.144,59.00928,17.0688,  !- X,Y,Z ==> Vertex 1 {m}
    9.144,9.144,17.0688,  !- X,Y,Z ==> Vertex 2 {m}
    20.94588648,9.144,17.0688,  !- X,Y,Z ==> Vertex 3 {m}
    20.94588648,59.00928,17.0688;  !- X,Y,Z ==> Vertex 4 {m}

  BuildingSurface:Detailed,
    E4 Roof (T.C36.E30),     !- Name
    Roof,                    !- Surface Type
    Exterior Roof,           !- Construction Name
    E4 Core Plnm (T.C36),    !- Zone Name
    ,                        !- Space Name
    Outdoors,                !- Outside Boundary Condition
    ,                        !- Outside Boundary Condition Object
    SunExposed,              !- Sun Exposure
    WindExposed,             !- Wind Exposure
    ,                        !- View Factor to Ground
    4,                       !- Number of Vertices
    20.94588648,59.00928,17.0688,  !- X,Y,Z ==> Vertex 1 {m}
    20.94588648,9.144,17.0688,  !- X,Y,Z ==> Vertex 2 {m}
    127.16256,9.144,17.0688,  !- X,Y,Z ==> Vertex 3 {m}
    127.16256,59.00928,17.0688;  !- X,Y,Z ==> Vertex 4 {m}

  BuildingSurface:Detailed,
    E4 Roof (T.E32.E24),     !- Name
    Roof,                    !- Surface Type
    Exterior Roof,           !- Construction Name
    E4 East Perim Plnm (T.E32),  !- Zone Name
    ,                        !- Space Name
    Outdoors,                !- Outside Boundary Condition
    ,                        !- Outside Boundary Condition Object
    SunExposed,              !- Sun Exposure
    WindExposed,             !- Wind Exposure
    ,                        !- View Factor to Ground
    4,                       !- Number of Vertices
    136.30656,68.15328,17.0688,  !- X,Y,Z ==> Vertex 1 {m}
    127.16256,59.00928,17.0688,  !- X,Y,Z ==> Vertex 2 {m}
    127.16256,9.144,17.0688,  !- X,Y,Z ==> Vertex 3 {m}
    136.30656,0,17.0688;  !- X,Y,Z ==> Vertex 4 {m}

  BuildingSurface:Detailed,
    E4 Roof (T.N33.E26),     !- Name
    Roof,                    !- Surface Type
    Exterior Roof,           !- Construction Name
    E4 North Perim Plnm (T.N33),  !- Zone Name
    ,                        !- Space Name
    Outdoors,                !- Outside Boundary Condition
    ,                        !- Outside Boundary Condition Object
    SunExposed,              !- Sun Exposure
    WindExposed,             !- Wind Exposure
    ,                        !- View Factor to Ground
    4,                       !- Number of Vertices
    0,68.15328,17.0688,  !- X,Y,Z ==> Vertex 1 {m}
    9.144,59.00928,17.0688,  !- X,Y,Z ==> Vertex 2 {m}
    127.16256,59.00928,17.0688,  !- X,Y,Z ==> Vertex 3 {m}
    136.30656,68.15328,17.0688;  !- X,Y,Z ==> Vertex 4 {m}

  BuildingSurface:Detailed,
    E4 Roof (T.S31.E22),     !- Name
    Roof,                    !- Surface Type
    Exterior Roof,           !- Construction Name
    E4 South Perim Plnm (T.S31),  !- Zone Name
    ,                        !- Space Name
    Outdoors,                !- Outside Boundary Condition
    ,                        !- Outside Boundary Condition Object
    SunExposed,              !- Sun Exposure
    WindExposed,             !- Wind Exposure
    ,                        !- View Factor to Ground
    4,                       !- Number of Vertices
    9.144,9.144,17.0688,  !- X,Y,Z ==> Vertex 1 {m}
    0,0,17.0688,  !- X,Y,Z ==> Vertex 2 {m}
    136.30656,0,17.0688,  !- X,Y,Z ==> Vertex 3 {m}
    127.16256,9.144,17.0688;  !- X,Y,Z ==> Vertex 4 {m}

  BuildingSurface:Detailed,
    E4 Roof (T.W34.E28),     !- Name
    Roof,                    !- Surface Type
    Exterior Roof,           !- Construction Name
    E4 West Perim Plnm (T.W34),  !- Zone Name
    ,                        !- Space Name
    Outdoors,                !- Outside Boundary Condition
    ,                        !- Outside Boundary Condition Object
    SunExposed,              !- Sun Exposure
    WindExposed,             !- Wind Exposure
    ,                        !- View Factor to Ground
    4,                       !- Number of Vertices
    0,68.15328,17.0688,  !- X,Y,Z ==> Vertex 1 {m}
    0,0,17.0688,  !- X,Y,Z ==> Vertex 2 {m}
    9.144,9.144,17.0688,  !- X,Y,Z ==> Vertex 3 {m}
    9.144,59.00928,17.0688;  !- X,Y,Z ==> Vertex 4 {m}

  BuildingSurface:Detailed,
    E4 SE Wall (G.N3.I14),   !- Name
    Wall,                    !- Surface Type
    Interior Wall,           !- Construction Name
    Classroom E4 North Perim (G.N3),  !- Zone Name
    ,                        !- Space Name
    Surface,                 !- Outside Boundary Condition
    E4 SE Wall (G.N3.I14) Reversed,  !- Outside Boundary Condition Object
    NoSun,                   !- Sun Exposure
    NoWind,                  !- Wind Exposure
    ,                        !- View Factor to Ground
    4,                       !- Number of Vertices
    127.16256,59.00928,7.3152,  !- X,Y,Z ==> Vertex 1 {m}
    127.16256,59.00928,4.2672,  !- X,Y,Z ==> Vertex 2 {m}
    136.30656,68.15328,4.2672,  !- X,Y,Z ==> Vertex 3 {m}
    136.30656,68.15328,7.3152;  !- X,Y,Z ==> Vertex 4 {m}

  BuildingSurface:Detailed,
    E4 SE Wall (G.N3.I14) Reversed,  !- Name
    Wall,                    !- Surface Type
    Interior Wall,           !- Construction Name
    Classroom E4 East Perim (G.E2),  !- Zone Name
    ,                        !- Space Name
    Surface,                 !- Outside Boundary Condition
    E4 SE Wall (G.N3.I14),   !- Outside Boundary Condition Object
    NoSun,                   !- Sun Exposure
    NoWind,                  !- Wind Exposure
    ,                        !- View Factor to Ground
    4,                       !- Number of Vertices
    136.30656,68.15328,7.3152,  !- X,Y,Z ==> Vertex 1 {m}
    136.30656,68.15328,4.2672,  !- X,Y,Z ==> Vertex 2 {m}
    127.16256,59.00928,4.2672,  !- X,Y,Z ==> Vertex 3 {m}
    127.16256,59.00928,7.3152;  !- X,Y,Z ==> Vertex 4 {m}

  BuildingSurface:Detailed,
    E4 SE Wall (G.N9.I32)-mirror,  !- Name
    Wall,                    !- Surface Type
    Interior Wall,           !- Construction Name
    E4 East Perim Plnm (G.E8),  !- Zone Name
    ,                        !- Space Name
    Surface,                 !- Outside Boundary Condition
    E4 SE Wall (G.N9.I32)-mirror Reversed,  !- Outside Boundary Condition Object
    NoSun,                   !- Sun Exposure
    NoWind,                  !- Wind Exposure
    ,                        !- View Factor to Ground
    4,                       !- Number of Vertices
    136.30656,68.15328,8.5344,  !- X,Y,Z ==> Vertex 1 {m}
    136.30656,68.15328,7.3152,  !- X,Y,Z ==> Vertex 2 {m}
    127.16256,59.00928,7.3152,  !- X,Y,Z ==> Vertex 3 {m}
    127.16256,59.00928,8.5344;  !- X,Y,Z ==> Vertex 4 {m}

  BuildingSurface:Detailed,
    E4 SE Wall (G.N9.I32)-mirror Reversed,  !- Name
    Wall,                    !- Surface Type
    Interior Wall,           !- Construction Name
    E4 North Perim Plnm (G.N9),  !- Zone Name
    ,                        !- Space Name
    Surface,                 !- Outside Boundary Condition
    E4 SE Wall (G.N9.I32)-mirror,  !- Outside Boundary Condition Object
    NoSun,                   !- Sun Exposure
    NoWind,                  !- Wind Exposure
    ,                        !- View Factor to Ground
    4,                       !- Number of Vertices
    127.16256,59.00928,8.5344,  !- X,Y,Z ==> Vertex 1 {m}
    127.16256,59.00928,7.3152,  !- X,Y,Z ==> Vertex 2 {m}
    136.30656,68.15328,7.3152,  !- X,Y,Z ==> Vertex 3 {m}
    136.30656,68.15328,8.5344;  !- X,Y,Z ==> Vertex 4 {m}

  BuildingSurface:Detailed,
    E4 SE Wall (M.N15.I48)-mirror,  !- Name
    Wall,                    !- Surface Type
    Interior Wall,           !- Construction Name
    Classroom E4 East Perim (M.E14),  !- Zone Name
    ,                        !- Space Name
    Surface,                 !- Outside Boundary Condition
    E4 SE Wall (M.N15.I48)-mirror Reversed,  !- Outside Boundary Condition Object
    NoSun,                   !- Sun Exposure
    NoWind,                  !- Wind Exposure
    ,                        !- View Factor to Ground
    4,                       !- Number of Vertices
    136.30656,68.15328,11.5824,  !- X,Y,Z ==> Vertex 1 {m}
    136.30656,68.15328,8.5344,  !- X,Y,Z ==> Vertex 2 {m}
    127.16256,59.00928,8.5344,  !- X,Y,Z ==> Vertex 3 {m}
    127.16256,59.00928,11.5824;  !- X,Y,Z ==> Vertex 4 {m}

  BuildingSurface:Detailed,
    E4 SE Wall (M.N15.I48)-mirror Reversed,  !- Name
    Wall,                    !- Surface Type
    Interior Wall,           !- Construction Name
    Classroom E4 North Perim (M.N15),  !- Zone Name
    ,                        !- Space Name
    Surface,                 !- Outside Boundary Condition
    E4 SE Wall (M.N15.I48)-mirror,  !- Outside Boundary Condition Object
    NoSun,                   !- Sun Exposure
    NoWind,                  !- Wind Exposure
    ,                        !- View Factor to Ground
    4,                       !- Number of Vertices
    127.16256,59.00928,11.5824,  !- X,Y,Z ==> Vertex 1 {m}
    127.16256,59.00928,8.5344,  !- X,Y,Z ==> Vertex 2 {m}
    136.30656,68.15328,8.5344,  !- X,Y,Z ==> Vertex 3 {m}
    136.30656,68.15328,11.5824;  !- X,Y,Z ==> Vertex 4 {m}

  BuildingSurface:Detailed,
    E4 SE Wall (M.N21.I66)-mirror,  !- Name
    Wall,                    !- Surface Type
    Interior Wall,           !- Construction Name
    E4 East Perim Plnm (M.E20),  !- Zone Name
    ,                        !- Space Name
    Surface,                 !- Outside Boundary Condition
    E4 SE Wall (M.N21.I66)-mirror Reversed,  !- Outside Boundary Condition Object
    NoSun,                   !- Sun Exposure
    NoWind,                  !- Wind Exposure
    ,                        !- View Factor to Ground
    4,                       !- Number of Vertices
    136.30656,68.15328,12.8016,  !- X,Y,Z ==> Vertex 1 {m}
    136.30656,68.15328,11.5824,  !- X,Y,Z ==> Vertex 2 {m}
    127.16256,59.00928,11.5824,  !- X,Y,Z ==> Vertex 3 {m}
    127.16256,59.00928,12.8016;  !- X,Y,Z ==> Vertex 4 {m}

  BuildingSurface:Detailed,
    E4 SE Wall (M.N21.I66)-mirror Reversed,  !- Name
    Wall,                    !- Surface Type
    Interior Wall,           !- Construction Name
    E4 North Perim Plnm (M.N21),  !- Zone Name
    ,                        !- Space Name
    Surface,                 !- Outside Boundary Condition
    E4 SE Wall (M.N21.I66)-mirror,  !- Outside Boundary Condition Object
    NoSun,                   !- Sun Exposure
    NoWind,                  !- Wind Exposure
    ,                        !- View Factor to Ground
    4,                       !- Number of Vertices
    127.16256,59.00928,12.8016,  !- X,Y,Z ==> Vertex 1 {m}
    127.16256,59.00928,11.5824,  !- X,Y,Z ==> Vertex 2 {m}
    136.30656,68.15328,11.5824,  !- X,Y,Z ==> Vertex 3 {m}
    136.30656,68.15328,12.8016;  !- X,Y,Z ==> Vertex 4 {m}

  BuildingSurface:Detailed,
    E4 SE Wall (T.N27.I82)-mirror,  !- Name
    Wall,                    !- Surface Type
    Interior Wall,           !- Construction Name
    Classroom E4 East Perim (T.E26),  !- Zone Name
    ,                        !- Space Name
    Surface,                 !- Outside Boundary Condition
    E4 SE Wall (T.N27.I82)-mirror Reversed,  !- Outside Boundary Condition Object
    NoSun,                   !- Sun Exposure
    NoWind,                  !- Wind Exposure
    ,                        !- View Factor to Ground
    4,                       !- Number of Vertices
    136.30656,68.15328,15.8496,  !- X,Y,Z ==> Vertex 1 {m}
    136.30656,68.15328,12.8016,  !- X,Y,Z ==> Vertex 2 {m}
    127.16256,59.00928,12.8016,  !- X,Y,Z ==> Vertex 3 {m}
    127.16256,59.00928,15.8496;  !- X,Y,Z ==> Vertex 4 {m}

  BuildingSurface:Detailed,
    E4 SE Wall (T.N27.I82)-mirror Reversed,  !- Name
    Wall,                    !- Surface Type
    Interior Wall,           !- Construction Name
    Classroom E4 North Perim (T.N27),  !- Zone Name
    ,                        !- Space Name
    Surface,                 !- Outside Boundary Condition
    E4 SE Wall (T.N27.I82)-mirror,  !- Outside Boundary Condition Object
    NoSun,                   !- Sun Exposure
    NoWind,                  !- Wind Exposure
    ,                        !- View Factor to Ground
    4,                       !- Number of Vertices
    127.16256,59.00928,15.8496,  !- X,Y,Z ==> Vertex 1 {m}
    127.16256,59.00928,12.8016,  !- X,Y,Z ==> Vertex 2 {m}
    136.30656,68.15328,12.8016,  !- X,Y,Z ==> Vertex 3 {m}
    136.30656,68.15328,15.8496;  !- X,Y,Z ==> Vertex 4 {m}

  BuildingSurface:Detailed,
    E4 SE Wall (T.N33.I100)-mirror,  !- Name
    Wall,                    !- Surface Type
    Interior Wall,           !- Construction Name
    E4 East Perim Plnm (T.E32),  !- Zone Name
    ,                        !- Space Name
    Surface,                 !- Outside Boundary Condition
    E4 SE Wall (T.N33.I100)-mirror Reversed,  !- Outside Boundary Condition Object
    NoSun,                   !- Sun Exposure
    NoWind,                  !- Wind Exposure
    ,                        !- View Factor to Ground
    4,                       !- Number of Vertices
    136.30656,68.15328,17.0688,  !- X,Y,Z ==> Vertex 1 {m}
    136.30656,68.15328,15.8496,  !- X,Y,Z ==> Vertex 2 {m}
    127.16256,59.00928,15.8496,  !- X,Y,Z ==> Vertex 3 {m}
    127.16256,59.00928,17.0688;  !- X,Y,Z ==> Vertex 4 {m}

  BuildingSurface:Detailed,
    E4 SE Wall (T.N33.I100)-mirror Reversed,  !- Name
    Wall,                    !- Surface Type
    Interior Wall,           !- Construction Name
    E4 North Perim Plnm (T.N33),  !- Zone Name
    ,                        !- Space Name
    Surface,                 !- Outside Boundary Condition
    E4 SE Wall (T.N33.I100)-mirror,  !- Outside Boundary Condition Object
    NoSun,                   !- Sun Exposure
    NoWind,                  !- Wind Exposure
    ,                        !- View Factor to Ground
    4,                       !- Number of Vertices
    127.16256,59.00928,17.0688,  !- X,Y,Z ==> Vertex 1 {m}
    127.16256,59.00928,15.8496,  !- X,Y,Z ==> Vertex 2 {m}
    136.30656,68.15328,15.8496,  !- X,Y,Z ==> Vertex 3 {m}
    136.30656,68.15328,17.0688;  !- X,Y,Z ==> Vertex 4 {m}

  BuildingSurface:Detailed,
    E4 SW Wall (G.N3.I11),   !- Name
    Wall,                    !- Surface Type
    Interior Wall,           !- Construction Name
    Classroom E4 North Perim (G.N3),  !- Zone Name
    ,                        !- Space Name
    Surface,                 !- Outside Boundary Condition
    E4 SW Wall (G.N3.I11) Reversed,  !- Outside Boundary Condition Object
    NoSun,                   !- Sun Exposure
    NoWind,                  !- Wind Exposure
    ,                        !- View Factor to Ground
    4,                       !- Number of Vertices
    0,68.15328,7.3152,  !- X,Y,Z ==> Vertex 1 {m}
    0,68.15328,4.2672,  !- X,Y,Z ==> Vertex 2 {m}
    9.144,59.00928,4.2672,  !- X,Y,Z ==> Vertex 3 {m}
    9.144,59.00928,7.3152;  !- X,Y,Z ==> Vertex 4 {m}

  BuildingSurface:Detailed,
    E4 SW Wall (G.N3.I11) Reversed,  !- Name
    Wall,                    !- Surface Type
    Interior Wall,           !- Construction Name
    Classroom E4 West Perim (G.W4),  !- Zone Name
    ,                        !- Space Name
    Surface,                 !- Outside Boundary Condition
    E4 SW Wall (G.N3.I11),   !- Outside Boundary Condition Object
    NoSun,                   !- Sun Exposure
    NoWind,                  !- Wind Exposure
    ,                        !- View Factor to Ground
    4,                       !- Number of Vertices
    9.144,59.00928,7.3152,  !- X,Y,Z ==> Vertex 1 {m}
    9.144,59.00928,4.2672,  !- X,Y,Z ==> Vertex 2 {m}
    0,68.15328,4.2672,  !- X,Y,Z ==> Vertex 3 {m}
    0,68.15328,7.3152;  !- X,Y,Z ==> Vertex 4 {m}

  BuildingSurface:Detailed,
    E4 SW Wall (G.N9.I29),   !- Name
    Wall,                    !- Surface Type
    Interior Wall,           !- Construction Name
    E4 North Perim Plnm (G.N9),  !- Zone Name
    ,                        !- Space Name
    Surface,                 !- Outside Boundary Condition
    E4 SW Wall (G.N9.I29) Reversed,  !- Outside Boundary Condition Object
    NoSun,                   !- Sun Exposure
    NoWind,                  !- Wind Exposure
    ,                        !- View Factor to Ground
    4,                       !- Number of Vertices
    0,68.15328,8.5344,  !- X,Y,Z ==> Vertex 1 {m}
    0,68.15328,7.3152,  !- X,Y,Z ==> Vertex 2 {m}
    9.144,59.00928,7.3152,  !- X,Y,Z ==> Vertex 3 {m}
    9.144,59.00928,8.5344;  !- X,Y,Z ==> Vertex 4 {m}

  BuildingSurface:Detailed,
    E4 SW Wall (G.N9.I29) Reversed,  !- Name
    Wall,                    !- Surface Type
    Interior Wall,           !- Construction Name
    E4 West Perim Plnm (G.W10),  !- Zone Name
    ,                        !- Space Name
    Surface,                 !- Outside Boundary Condition
    E4 SW Wall (G.N9.I29),   !- Outside Boundary Condition Object
    NoSun,                   !- Sun Exposure
    NoWind,                  !- Wind Exposure
    ,                        !- View Factor to Ground
    4,                       !- Number of Vertices
    9.144,59.00928,8.5344,  !- X,Y,Z ==> Vertex 1 {m}
    9.144,59.00928,7.3152,  !- X,Y,Z ==> Vertex 2 {m}
    0,68.15328,7.3152,  !- X,Y,Z ==> Vertex 3 {m}
    0,68.15328,8.5344;  !- X,Y,Z ==> Vertex 4 {m}

  BuildingSurface:Detailed,
    E4 SW Wall (M.N15.I45),  !- Name
    Wall,                    !- Surface Type
    Interior Wall,           !- Construction Name
    Classroom E4 North Perim (M.N15),  !- Zone Name
    ,                        !- Space Name
    Surface,                 !- Outside Boundary Condition
    E4 SW Wall (M.N15.I45) Reversed,  !- Outside Boundary Condition Object
    NoSun,                   !- Sun Exposure
    NoWind,                  !- Wind Exposure
    ,                        !- View Factor to Ground
    4,                       !- Number of Vertices
    0,68.15328,11.5824,  !- X,Y,Z ==> Vertex 1 {m}
    0,68.15328,8.5344,  !- X,Y,Z ==> Vertex 2 {m}
    9.144,59.00928,8.5344,  !- X,Y,Z ==> Vertex 3 {m}
    9.144,59.00928,11.5824;  !- X,Y,Z ==> Vertex 4 {m}

  BuildingSurface:Detailed,
    E4 SW Wall (M.N15.I45) Reversed,  !- Name
    Wall,                    !- Surface Type
    Interior Wall,           !- Construction Name
    Classroom E4 West Perim (M.W16),  !- Zone Name
    ,                        !- Space Name
    Surface,                 !- Outside Boundary Condition
    E4 SW Wall (M.N15.I45),  !- Outside Boundary Condition Object
    NoSun,                   !- Sun Exposure
    NoWind,                  !- Wind Exposure
    ,                        !- View Factor to Ground
    4,                       !- Number of Vertices
    9.144,59.00928,11.5824,  !- X,Y,Z ==> Vertex 1 {m}
    9.144,59.00928,8.5344,  !- X,Y,Z ==> Vertex 2 {m}
    0,68.15328,8.5344,  !- X,Y,Z ==> Vertex 3 {m}
    0,68.15328,11.5824;  !- X,Y,Z ==> Vertex 4 {m}

  BuildingSurface:Detailed,
    E4 SW Wall (M.N21.I63),  !- Name
    Wall,                    !- Surface Type
    Interior Wall,           !- Construction Name
    E4 North Perim Plnm (M.N21),  !- Zone Name
    ,                        !- Space Name
    Surface,                 !- Outside Boundary Condition
    E4 SW Wall (M.N21.I63) Reversed,  !- Outside Boundary Condition Object
    NoSun,                   !- Sun Exposure
    NoWind,                  !- Wind Exposure
    ,                        !- View Factor to Ground
    4,                       !- Number of Vertices
    0,68.15328,12.8016,  !- X,Y,Z ==> Vertex 1 {m}
    0,68.15328,11.5824,  !- X,Y,Z ==> Vertex 2 {m}
    9.144,59.00928,11.5824,  !- X,Y,Z ==> Vertex 3 {m}
    9.144,59.00928,12.8016;  !- X,Y,Z ==> Vertex 4 {m}

  BuildingSurface:Detailed,
    E4 SW Wall (M.N21.I63) Reversed,  !- Name
    Wall,                    !- Surface Type
    Interior Wall,           !- Construction Name
    E4 West Perim Plnm (M.W22),  !- Zone Name
    ,                        !- Space Name
    Surface,                 !- Outside Boundary Condition
    E4 SW Wall (M.N21.I63),  !- Outside Boundary Condition Object
    NoSun,                   !- Sun Exposure
    NoWind,                  !- Wind Exposure
    ,                        !- View Factor to Ground
    4,                       !- Number of Vertices
    9.144,59.00928,12.8016,  !- X,Y,Z ==> Vertex 1 {m}
    9.144,59.00928,11.5824,  !- X,Y,Z ==> Vertex 2 {m}
    0,68.15328,11.5824,  !- X,Y,Z ==> Vertex 3 {m}
    0,68.15328,12.8016;  !- X,Y,Z ==> Vertex 4 {m}

  BuildingSurface:Detailed,
    E4 SW Wall (T.N27.I79),  !- Name
    Wall,                    !- Surface Type
    Interior Wall,           !- Construction Name
    Classroom E4 North Perim (T.N27),  !- Zone Name
    ,                        !- Space Name
    Surface,                 !- Outside Boundary Condition
    E4 SW Wall (T.N27.I79) Reversed,  !- Outside Boundary Condition Object
    NoSun,                   !- Sun Exposure
    NoWind,                  !- Wind Exposure
    ,                        !- View Factor to Ground
    4,                       !- Number of Vertices
    0,68.15328,15.8496,  !- X,Y,Z ==> Vertex 1 {m}
    0,68.15328,12.8016,  !- X,Y,Z ==> Vertex 2 {m}
    9.144,59.00928,12.8016,  !- X,Y,Z ==> Vertex 3 {m}
    9.144,59.00928,15.8496;  !- X,Y,Z ==> Vertex 4 {m}

  BuildingSurface:Detailed,
    E4 SW Wall (T.N27.I79) Reversed,  !- Name
    Wall,                    !- Surface Type
    Interior Wall,           !- Construction Name
    Classroom E4 West Perim (T.W28),  !- Zone Name
    ,                        !- Space Name
    Surface,                 !- Outside Boundary Condition
    E4 SW Wall (T.N27.I79),  !- Outside Boundary Condition Object
    NoSun,                   !- Sun Exposure
    NoWind,                  !- Wind Exposure
    ,                        !- View Factor to Ground
    4,                       !- Number of Vertices
    9.144,59.00928,15.8496,  !- X,Y,Z ==> Vertex 1 {m}
    9.144,59.00928,12.8016,  !- X,Y,Z ==> Vertex 2 {m}
    0,68.15328,12.8016,  !- X,Y,Z ==> Vertex 3 {m}
    0,68.15328,15.8496;  !- X,Y,Z ==> Vertex 4 {m}

  BuildingSurface:Detailed,
    E4 SW Wall (T.N33.I97),  !- Name
    Wall,                    !- Surface Type
    Interior Wall,           !- Construction Name
    E4 North Perim Plnm (T.N33),  !- Zone Name
    ,                        !- Space Name
    Surface,                 !- Outside Boundary Condition
    E4 SW Wall (T.N33.I97) Reversed,  !- Outside Boundary Condition Object
    NoSun,                   !- Sun Exposure
    NoWind,                  !- Wind Exposure
    ,                        !- View Factor to Ground
    4,                       !- Number of Vertices
    0,68.15328,17.0688,  !- X,Y,Z ==> Vertex 1 {m}
    0,68.15328,15.8496,  !- X,Y,Z ==> Vertex 2 {m}
    9.144,59.00928,15.8496,  !- X,Y,Z ==> Vertex 3 {m}
    9.144,59.00928,17.0688;  !- X,Y,Z ==> Vertex 4 {m}

  BuildingSurface:Detailed,
    E4 SW Wall (T.N33.I97) Reversed,  !- Name
    Wall,                    !- Surface Type
    Interior Wall,           !- Construction Name
    E4 West Perim Plnm (T.W34),  !- Zone Name
    ,                        !- Space Name
    Surface,                 !- Outside Boundary Condition
    E4 SW Wall (T.N33.I97),  !- Outside Boundary Condition Object
    NoSun,                   !- Sun Exposure
    NoWind,                  !- Wind Exposure
    ,                        !- View Factor to Ground
    4,                       !- Number of Vertices
    9.144,59.00928,17.0688,  !- X,Y,Z ==> Vertex 1 {m}
    9.144,59.00928,15.8496,  !- X,Y,Z ==> Vertex 2 {m}
    0,68.15328,15.8496,  !- X,Y,Z ==> Vertex 3 {m}
    0,68.15328,17.0688;  !- X,Y,Z ==> Vertex 4 {m}

  BuildingSurface:Detailed,
    E4 South Perim Spc (G.S1) - Floor_a,  !- Name
    Floor,                   !- Surface Type
    Interior Floor,          !- Construction Name
    Classroom E4 South Perim (G.S1),  !- Zone Name
    ,                        !- Space Name
    Surface,                 !- Outside Boundary Condition
    E4 South Perim Spc (G.S1) - Floor_a Reversed,  !- Outside Boundary Condition Object
    NoSun,                   !- Sun Exposure
    NoWind,                  !- Wind Exposure
    ,                        !- View Factor to Ground
    4,                       !- Number of Vertices
    112.97412,9.144,4.2672,  !- X,Y,Z ==> Vertex 1 {m}
    112.97412,0,4.2672,  !- X,Y,Z ==> Vertex 2 {m}
    54.52872,0,4.2672,  !- X,Y,Z ==> Vertex 3 {m}
    54.52872,9.144,4.2672;  !- X,Y,Z ==> Vertex 4 {m}

  BuildingSurface:Detailed,
    E4 South Perim Spc (G.S1) - Floor_a Reversed,  !- Name
    Ceiling,                 !- Surface Type
    Radiant Interior Ceiling,!- Construction Name
    E2 South Perim Plnm (G.S5),  !- Zone Name
    ,                        !- Space Name
    Surface,                 !- Outside Boundary Condition
    E4 South Perim Spc (G.S1) - Floor_a,  !- Outside Boundary Condition Object
    NoSun,                   !- Sun Exposure
    NoWind,                  !- Wind Exposure
    ,                        !- View Factor to Ground
    4,                       !- Number of Vertices
    54.52872,9.144,4.2672,  !- X,Y,Z ==> Vertex 1 {m}
    54.52872,0,4.2672,  !- X,Y,Z ==> Vertex 2 {m}
    112.97412,0,4.2672,  !- X,Y,Z ==> Vertex 3 {m}
    112.97412,9.144,4.2672;  !- X,Y,Z ==> Vertex 4 {m}

  BuildingSurface:Detailed,
    E4 South Perim Spc (G.S1) - Floor_b,  !- Name
    Floor,                   !- Surface Type
    Interior Floor,          !- Construction Name
    Classroom E4 South Perim (G.S1),  !- Zone Name
    ,                        !- Space Name
    Surface,                 !- Outside Boundary Condition
    E4 South Perim Spc (G.S1) - Floor_b Reversed,  !- Outside Boundary Condition Object
    NoSun,                   !- Sun Exposure
    NoWind,                  !- Wind Exposure
    ,                        !- View Factor to Ground
    4,                       !- Number of Vertices
    127.16256,9.144,4.2672,  !- X,Y,Z ==> Vertex 1 {m}
    136.30656,0,4.2672,  !- X,Y,Z ==> Vertex 2 {m}
    112.97412,0,4.2672,  !- X,Y,Z ==> Vertex 3 {m}
    112.97412,9.144,4.2672;  !- X,Y,Z ==> Vertex 4 {m}

  BuildingSurface:Detailed,
    E4 South Perim Spc (G.S1) - Floor_b Reversed,  !- Name
    Ceiling,                 !- Surface Type
    Radiant Interior Ceiling,!- Construction Name
    Dining E3 South Perim (G.S1),  !- Zone Name
    ,                        !- Space Name
    Surface,                 !- Outside Boundary Condition
    E4 South Perim Spc (G.S1) - Floor_b,  !- Outside Boundary Condition Object
    NoSun,                   !- Sun Exposure
    NoWind,                  !- Wind Exposure
    ,                        !- View Factor to Ground
    4,                       !- Number of Vertices
    112.97412,9.144,4.2672,  !- X,Y,Z ==> Vertex 1 {m}
    112.97412,0,4.2672,  !- X,Y,Z ==> Vertex 2 {m}
    136.30656,0,4.2672,  !- X,Y,Z ==> Vertex 3 {m}
    127.16256,9.144,4.2672;  !- X,Y,Z ==> Vertex 4 {m}

  BuildingSurface:Detailed,
    E4 South Wall (G.N3.I12),!- Name
    Wall,                    !- Surface Type
    Interior Wall,           !- Construction Name
    Classroom E4 North Perim (G.N3),  !- Zone Name
    ,                        !- Space Name
    Surface,                 !- Outside Boundary Condition
    E4 South Wall (G.N3.I12) Reversed,  !- Outside Boundary Condition Object
    NoSun,                   !- Sun Exposure
    NoWind,                  !- Wind Exposure
    ,                        !- View Factor to Ground
    4,                       !- Number of Vertices
    9.144,59.00928,7.3152,  !- X,Y,Z ==> Vertex 1 {m}
    9.144,59.00928,4.2672,  !- X,Y,Z ==> Vertex 2 {m}
    20.94588648,59.00928,4.2672,  !- X,Y,Z ==> Vertex 3 {m}
    20.94588648,59.00928,7.3152;  !- X,Y,Z ==> Vertex 4 {m}

  BuildingSurface:Detailed,
    E4 South Wall (G.N3.I12) Reversed,  !- Name
    Wall,                    !- Surface Type
    Interior Wall,           !- Construction Name
    Computer E4 Core (G.C5), !- Zone Name
    ,                        !- Space Name
    Surface,                 !- Outside Boundary Condition
    E4 South Wall (G.N3.I12),!- Outside Boundary Condition Object
    NoSun,                   !- Sun Exposure
    NoWind,                  !- Wind Exposure
    ,                        !- View Factor to Ground
    4,                       !- Number of Vertices
    20.94588648,59.00928,7.3152,  !- X,Y,Z ==> Vertex 1 {m}
    20.94588648,59.00928,4.2672,  !- X,Y,Z ==> Vertex 2 {m}
    9.144,59.00928,4.2672,  !- X,Y,Z ==> Vertex 3 {m}
    9.144,59.00928,7.3152;  !- X,Y,Z ==> Vertex 4 {m}

  BuildingSurface:Detailed,
    E4 South Wall (G.N3.I13),!- Name
    Wall,                    !- Surface Type
    Interior Wall,           !- Construction Name
    Classroom E4 North Perim (G.N3),  !- Zone Name
    ,                        !- Space Name
    Surface,                 !- Outside Boundary Condition
    E4 South Wall (G.N3.I13) Reversed,  !- Outside Boundary Condition Object
    NoSun,                   !- Sun Exposure
    NoWind,                  !- Wind Exposure
    ,                        !- View Factor to Ground
    4,                       !- Number of Vertices
    20.94588648,59.00928,7.3152,  !- X,Y,Z ==> Vertex 1 {m}
    20.94588648,59.00928,4.2672,  !- X,Y,Z ==> Vertex 2 {m}
    127.16256,59.00928,4.2672,  !- X,Y,Z ==> Vertex 3 {m}
    127.16256,59.00928,7.3152;  !- X,Y,Z ==> Vertex 4 {m}

  BuildingSurface:Detailed,
    E4 South Wall (G.N3.I13) Reversed,  !- Name
    Wall,                    !- Surface Type
    Interior Wall,           !- Construction Name
    Office E4 Core (G.C6),   !- Zone Name
    ,                        !- Space Name
    Surface,                 !- Outside Boundary Condition
    E4 South Wall (G.N3.I13),!- Outside Boundary Condition Object
    NoSun,                   !- Sun Exposure
    NoWind,                  !- Wind Exposure
    ,                        !- View Factor to Ground
    4,                       !- Number of Vertices
    127.16256,59.00928,7.3152,  !- X,Y,Z ==> Vertex 1 {m}
    127.16256,59.00928,4.2672,  !- X,Y,Z ==> Vertex 2 {m}
    20.94588648,59.00928,4.2672,  !- X,Y,Z ==> Vertex 3 {m}
    20.94588648,59.00928,7.3152;  !- X,Y,Z ==> Vertex 4 {m}

  BuildingSurface:Detailed,
    E4 South Wall (G.N9.I30)-mirror,  !- Name
    Wall,                    !- Surface Type
    Interior Wall,           !- Construction Name
    E4 Core Plnm (G.C11),    !- Zone Name
    ,                        !- Space Name
    Surface,                 !- Outside Boundary Condition
    E4 South Wall (G.N9.I30)-mirror Reversed,  !- Outside Boundary Condition Object
    NoSun,                   !- Sun Exposure
    NoWind,                  !- Wind Exposure
    ,                        !- View Factor to Ground
    4,                       !- Number of Vertices
    20.94588648,59.00928,8.5344,  !- X,Y,Z ==> Vertex 1 {m}
    20.94588648,59.00928,7.3152,  !- X,Y,Z ==> Vertex 2 {m}
    9.144,59.00928,7.3152,  !- X,Y,Z ==> Vertex 3 {m}
    9.144,59.00928,8.5344;  !- X,Y,Z ==> Vertex 4 {m}

  BuildingSurface:Detailed,
    E4 South Wall (G.N9.I30)-mirror Reversed,  !- Name
    Wall,                    !- Surface Type
    Interior Wall,           !- Construction Name
    E4 North Perim Plnm (G.N9),  !- Zone Name
    ,                        !- Space Name
    Surface,                 !- Outside Boundary Condition
    E4 South Wall (G.N9.I30)-mirror,  !- Outside Boundary Condition Object
    NoSun,                   !- Sun Exposure
    NoWind,                  !- Wind Exposure
    ,                        !- View Factor to Ground
    4,                       !- Number of Vertices
    9.144,59.00928,8.5344,  !- X,Y,Z ==> Vertex 1 {m}
    9.144,59.00928,7.3152,  !- X,Y,Z ==> Vertex 2 {m}
    20.94588648,59.00928,7.3152,  !- X,Y,Z ==> Vertex 3 {m}
    20.94588648,59.00928,8.5344;  !- X,Y,Z ==> Vertex 4 {m}

  BuildingSurface:Detailed,
    E4 South Wall (G.N9.I31)-mirror,  !- Name
    Wall,                    !- Surface Type
    Interior Wall,           !- Construction Name
    E4 Core Plnm (G.C12),    !- Zone Name
    ,                        !- Space Name
    Surface,                 !- Outside Boundary Condition
    E4 South Wall (G.N9.I31)-mirror Reversed,  !- Outside Boundary Condition Object
    NoSun,                   !- Sun Exposure
    NoWind,                  !- Wind Exposure
    ,                        !- View Factor to Ground
    4,                       !- Number of Vertices
    127.16256,59.00928,8.5344,  !- X,Y,Z ==> Vertex 1 {m}
    127.16256,59.00928,7.3152,  !- X,Y,Z ==> Vertex 2 {m}
    20.94588648,59.00928,7.3152,  !- X,Y,Z ==> Vertex 3 {m}
    20.94588648,59.00928,8.5344;  !- X,Y,Z ==> Vertex 4 {m}

  BuildingSurface:Detailed,
    E4 South Wall (G.N9.I31)-mirror Reversed,  !- Name
    Wall,                    !- Surface Type
    Interior Wall,           !- Construction Name
    E4 North Perim Plnm (G.N9),  !- Zone Name
    ,                        !- Space Name
    Surface,                 !- Outside Boundary Condition
    E4 South Wall (G.N9.I31)-mirror,  !- Outside Boundary Condition Object
    NoSun,                   !- Sun Exposure
    NoWind,                  !- Wind Exposure
    ,                        !- View Factor to Ground
    4,                       !- Number of Vertices
    20.94588648,59.00928,8.5344,  !- X,Y,Z ==> Vertex 1 {m}
    20.94588648,59.00928,7.3152,  !- X,Y,Z ==> Vertex 2 {m}
    127.16256,59.00928,7.3152,  !- X,Y,Z ==> Vertex 3 {m}
    127.16256,59.00928,8.5344;  !- X,Y,Z ==> Vertex 4 {m}

  BuildingSurface:Detailed,
    E4 South Wall (G.S1.E1), !- Name
    Wall,                    !- Surface Type
    Exterior Wall,           !- Construction Name
    Classroom E4 South Perim (G.S1),  !- Zone Name
    ,                        !- Space Name
    Outdoors,                !- Outside Boundary Condition
    ,                        !- Outside Boundary Condition Object
    SunExposed,              !- Sun Exposure
    WindExposed,             !- Wind Exposure
    ,                        !- View Factor to Ground
    4,                       !- Number of Vertices
    0,0,7.3152,  !- X,Y,Z ==> Vertex 1 {m}
    0,0,4.2672,  !- X,Y,Z ==> Vertex 2 {m}
    136.30656,0,4.2672,  !- X,Y,Z ==> Vertex 3 {m}
    136.30656,0,7.3152;  !- X,Y,Z ==> Vertex 4 {m}

  BuildingSurface:Detailed,
    E4 South Wall (G.S7.E5), !- Name
    Wall,                    !- Surface Type
    Exterior Wall,           !- Construction Name
    E4 South Perim Plnm (G.S7),  !- Zone Name
    ,                        !- Space Name
    Outdoors,                !- Outside Boundary Condition
    ,                        !- Outside Boundary Condition Object
    SunExposed,              !- Sun Exposure
    WindExposed,             !- Wind Exposure
    ,                        !- View Factor to Ground
    4,                       !- Number of Vertices
    0,0,8.5344,  !- X,Y,Z ==> Vertex 1 {m}
    0,0,7.3152,  !- X,Y,Z ==> Vertex 2 {m}
    136.30656,0,7.3152,  !- X,Y,Z ==> Vertex 3 {m}
    136.30656,0,8.5344;  !- X,Y,Z ==> Vertex 4 {m}

  BuildingSurface:Detailed,
    E4 South Wall (M.N15.I46)-mirror,  !- Name
    Wall,                    !- Surface Type
    Interior Wall,           !- Construction Name
    Computer E4 Core (M.C17),!- Zone Name
    ,                        !- Space Name
    Surface,                 !- Outside Boundary Condition
    E4 South Wall (M.N15.I46)-mirror Reversed,  !- Outside Boundary Condition Object
    NoSun,                   !- Sun Exposure
    NoWind,                  !- Wind Exposure
    ,                        !- View Factor to Ground
    4,                       !- Number of Vertices
    20.94588648,59.00928,11.5824,  !- X,Y,Z ==> Vertex 1 {m}
    20.94588648,59.00928,8.5344,  !- X,Y,Z ==> Vertex 2 {m}
    9.144,59.00928,8.5344,  !- X,Y,Z ==> Vertex 3 {m}
    9.144,59.00928,11.5824;  !- X,Y,Z ==> Vertex 4 {m}

  BuildingSurface:Detailed,
    E4 South Wall (M.N15.I46)-mirror Reversed,  !- Name
    Wall,                    !- Surface Type
    Interior Wall,           !- Construction Name
    Classroom E4 North Perim (M.N15),  !- Zone Name
    ,                        !- Space Name
    Surface,                 !- Outside Boundary Condition
    E4 South Wall (M.N15.I46)-mirror,  !- Outside Boundary Condition Object
    NoSun,                   !- Sun Exposure
    NoWind,                  !- Wind Exposure
    ,                        !- View Factor to Ground
    4,                       !- Number of Vertices
    9.144,59.00928,11.5824,  !- X,Y,Z ==> Vertex 1 {m}
    9.144,59.00928,8.5344,  !- X,Y,Z ==> Vertex 2 {m}
    20.94588648,59.00928,8.5344,  !- X,Y,Z ==> Vertex 3 {m}
    20.94588648,59.00928,11.5824;  !- X,Y,Z ==> Vertex 4 {m}

  BuildingSurface:Detailed,
    E4 South Wall (M.N15.I47)-mirror,  !- Name
    Wall,                    !- Surface Type
    Interior Wall,           !- Construction Name
    Office E4 Core (M.C18),  !- Zone Name
    ,                        !- Space Name
    Surface,                 !- Outside Boundary Condition
    E4 South Wall (M.N15.I47)-mirror Reversed,  !- Outside Boundary Condition Object
    NoSun,                   !- Sun Exposure
    NoWind,                  !- Wind Exposure
    ,                        !- View Factor to Ground
    4,                       !- Number of Vertices
    127.16256,59.00928,11.5824,  !- X,Y,Z ==> Vertex 1 {m}
    127.16256,59.00928,8.5344,  !- X,Y,Z ==> Vertex 2 {m}
    20.94588648,59.00928,8.5344,  !- X,Y,Z ==> Vertex 3 {m}
    20.94588648,59.00928,11.5824;  !- X,Y,Z ==> Vertex 4 {m}

  BuildingSurface:Detailed,
    E4 South Wall (M.N15.I47)-mirror Reversed,  !- Name
    Wall,                    !- Surface Type
    Interior Wall,           !- Construction Name
    Classroom E4 North Perim (M.N15),  !- Zone Name
    ,                        !- Space Name
    Surface,                 !- Outside Boundary Condition
    E4 South Wall (M.N15.I47)-mirror,  !- Outside Boundary Condition Object
    NoSun,                   !- Sun Exposure
    NoWind,                  !- Wind Exposure
    ,                        !- View Factor to Ground
    4,                       !- Number of Vertices
    20.94588648,59.00928,11.5824,  !- X,Y,Z ==> Vertex 1 {m}
    20.94588648,59.00928,8.5344,  !- X,Y,Z ==> Vertex 2 {m}
    127.16256,59.00928,8.5344,  !- X,Y,Z ==> Vertex 3 {m}
    127.16256,59.00928,11.5824;  !- X,Y,Z ==> Vertex 4 {m}

  BuildingSurface:Detailed,
    E4 South Wall (M.N21.I64)-mirror,  !- Name
    Wall,                    !- Surface Type
    Interior Wall,           !- Construction Name
    E4 Core Plnm (M.C23),    !- Zone Name
    ,                        !- Space Name
    Surface,                 !- Outside Boundary Condition
    E4 South Wall (M.N21.I64)-mirror Reversed,  !- Outside Boundary Condition Object
    NoSun,                   !- Sun Exposure
    NoWind,                  !- Wind Exposure
    ,                        !- View Factor to Ground
    4,                       !- Number of Vertices
    20.94588648,59.00928,12.8016,  !- X,Y,Z ==> Vertex 1 {m}
    20.94588648,59.00928,11.5824,  !- X,Y,Z ==> Vertex 2 {m}
    9.144,59.00928,11.5824,  !- X,Y,Z ==> Vertex 3 {m}
    9.144,59.00928,12.8016;  !- X,Y,Z ==> Vertex 4 {m}

  BuildingSurface:Detailed,
    E4 South Wall (M.N21.I64)-mirror Reversed,  !- Name
    Wall,                    !- Surface Type
    Interior Wall,           !- Construction Name
    E4 North Perim Plnm (M.N21),  !- Zone Name
    ,                        !- Space Name
    Surface,                 !- Outside Boundary Condition
    E4 South Wall (M.N21.I64)-mirror,  !- Outside Boundary Condition Object
    NoSun,                   !- Sun Exposure
    NoWind,                  !- Wind Exposure
    ,                        !- View Factor to Ground
    4,                       !- Number of Vertices
    9.144,59.00928,12.8016,  !- X,Y,Z ==> Vertex 1 {m}
    9.144,59.00928,11.5824,  !- X,Y,Z ==> Vertex 2 {m}
    20.94588648,59.00928,11.5824,  !- X,Y,Z ==> Vertex 3 {m}
    20.94588648,59.00928,12.8016;  !- X,Y,Z ==> Vertex 4 {m}

  BuildingSurface:Detailed,
    E4 South Wall (M.N21.I65)-mirror,  !- Name
    Wall,                    !- Surface Type
    Interior Wall,           !- Construction Name
    E4 Core Plnm (M.C24),    !- Zone Name
    ,                        !- Space Name
    Surface,                 !- Outside Boundary Condition
    E4 South Wall (M.N21.I65)-mirror Reversed,  !- Outside Boundary Condition Object
    NoSun,                   !- Sun Exposure
    NoWind,                  !- Wind Exposure
    ,                        !- View Factor to Ground
    4,                       !- Number of Vertices
    127.16256,59.00928,12.8016,  !- X,Y,Z ==> Vertex 1 {m}
    127.16256,59.00928,11.5824,  !- X,Y,Z ==> Vertex 2 {m}
    20.94588648,59.00928,11.5824,  !- X,Y,Z ==> Vertex 3 {m}
    20.94588648,59.00928,12.8016;  !- X,Y,Z ==> Vertex 4 {m}

  BuildingSurface:Detailed,
    E4 South Wall (M.N21.I65)-mirror Reversed,  !- Name
    Wall,                    !- Surface Type
    Interior Wall,           !- Construction Name
    E4 North Perim Plnm (M.N21),  !- Zone Name
    ,                        !- Space Name
    Surface,                 !- Outside Boundary Condition
    E4 South Wall (M.N21.I65)-mirror,  !- Outside Boundary Condition Object
    NoSun,                   !- Sun Exposure
    NoWind,                  !- Wind Exposure
    ,                        !- View Factor to Ground
    4,                       !- Number of Vertices
    20.94588648,59.00928,12.8016,  !- X,Y,Z ==> Vertex 1 {m}
    20.94588648,59.00928,11.5824,  !- X,Y,Z ==> Vertex 2 {m}
    127.16256,59.00928,11.5824,  !- X,Y,Z ==> Vertex 3 {m}
    127.16256,59.00928,12.8016;  !- X,Y,Z ==> Vertex 4 {m}

  BuildingSurface:Detailed,
    E4 South Wall (M.S13.E9),!- Name
    Wall,                    !- Surface Type
    Exterior Wall,           !- Construction Name
    Classroom E4 South Perim (M.S13),  !- Zone Name
    ,                        !- Space Name
    Outdoors,                !- Outside Boundary Condition
    ,                        !- Outside Boundary Condition Object
    SunExposed,              !- Sun Exposure
    WindExposed,             !- Wind Exposure
    ,                        !- View Factor to Ground
    4,                       !- Number of Vertices
    0,0,11.5824,  !- X,Y,Z ==> Vertex 1 {m}
    0,0,8.5344,  !- X,Y,Z ==> Vertex 2 {m}
    136.30656,0,8.5344,  !- X,Y,Z ==> Vertex 3 {m}
    136.30656,0,11.5824;  !- X,Y,Z ==> Vertex 4 {m}

  BuildingSurface:Detailed,
    E4 South Wall (M.S19.E13),  !- Name
    Wall,                    !- Surface Type
    Exterior Wall,           !- Construction Name
    E4 South Perim Plnm (M.S19),  !- Zone Name
    ,                        !- Space Name
    Outdoors,                !- Outside Boundary Condition
    ,                        !- Outside Boundary Condition Object
    SunExposed,              !- Sun Exposure
    WindExposed,             !- Wind Exposure
    ,                        !- View Factor to Ground
    4,                       !- Number of Vertices
    0,0,12.8016,  !- X,Y,Z ==> Vertex 1 {m}
    0,0,11.5824,  !- X,Y,Z ==> Vertex 2 {m}
    136.30656,0,11.5824,  !- X,Y,Z ==> Vertex 3 {m}
    136.30656,0,12.8016;  !- X,Y,Z ==> Vertex 4 {m}

  BuildingSurface:Detailed,
    E4 South Wall (T.N27.I80)-mirror,  !- Name
    Wall,                    !- Surface Type
    Interior Wall,           !- Construction Name
    Computer E4 Core (T.C29),!- Zone Name
    ,                        !- Space Name
    Surface,                 !- Outside Boundary Condition
    E4 South Wall (T.N27.I80)-mirror Reversed,  !- Outside Boundary Condition Object
    NoSun,                   !- Sun Exposure
    NoWind,                  !- Wind Exposure
    ,                        !- View Factor to Ground
    4,                       !- Number of Vertices
    20.94588648,59.00928,15.8496,  !- X,Y,Z ==> Vertex 1 {m}
    20.94588648,59.00928,12.8016,  !- X,Y,Z ==> Vertex 2 {m}
    9.144,59.00928,12.8016,  !- X,Y,Z ==> Vertex 3 {m}
    9.144,59.00928,15.8496;  !- X,Y,Z ==> Vertex 4 {m}

  BuildingSurface:Detailed,
    E4 South Wall (T.N27.I80)-mirror Reversed,  !- Name
    Wall,                    !- Surface Type
    Interior Wall,           !- Construction Name
    Classroom E4 North Perim (T.N27),  !- Zone Name
    ,                        !- Space Name
    Surface,                 !- Outside Boundary Condition
    E4 South Wall (T.N27.I80)-mirror,  !- Outside Boundary Condition Object
    NoSun,                   !- Sun Exposure
    NoWind,                  !- Wind Exposure
    ,                        !- View Factor to Ground
    4,                       !- Number of Vertices
    9.144,59.00928,15.8496,  !- X,Y,Z ==> Vertex 1 {m}
    9.144,59.00928,12.8016,  !- X,Y,Z ==> Vertex 2 {m}
    20.94588648,59.00928,12.8016,  !- X,Y,Z ==> Vertex 3 {m}
    20.94588648,59.00928,15.8496;  !- X,Y,Z ==> Vertex 4 {m}

  BuildingSurface:Detailed,
    E4 South Wall (T.N27.I81)-mirror,  !- Name
    Wall,                    !- Surface Type
    Interior Wall,           !- Construction Name
    Office E4 Core (T.C30),  !- Zone Name
    ,                        !- Space Name
    Surface,                 !- Outside Boundary Condition
    E4 South Wall (T.N27.I81)-mirror Reversed,  !- Outside Boundary Condition Object
    NoSun,                   !- Sun Exposure
    NoWind,                  !- Wind Exposure
    ,                        !- View Factor to Ground
    4,                       !- Number of Vertices
    127.16256,59.00928,15.8496,  !- X,Y,Z ==> Vertex 1 {m}
    127.16256,59.00928,12.8016,  !- X,Y,Z ==> Vertex 2 {m}
    20.94588648,59.00928,12.8016,  !- X,Y,Z ==> Vertex 3 {m}
    20.94588648,59.00928,15.8496;  !- X,Y,Z ==> Vertex 4 {m}

  BuildingSurface:Detailed,
    E4 South Wall (T.N27.I81)-mirror Reversed,  !- Name
    Wall,                    !- Surface Type
    Interior Wall,           !- Construction Name
    Classroom E4 North Perim (T.N27),  !- Zone Name
    ,                        !- Space Name
    Surface,                 !- Outside Boundary Condition
    E4 South Wall (T.N27.I81)-mirror,  !- Outside Boundary Condition Object
    NoSun,                   !- Sun Exposure
    NoWind,                  !- Wind Exposure
    ,                        !- View Factor to Ground
    4,                       !- Number of Vertices
    20.94588648,59.00928,15.8496,  !- X,Y,Z ==> Vertex 1 {m}
    20.94588648,59.00928,12.8016,  !- X,Y,Z ==> Vertex 2 {m}
    127.16256,59.00928,12.8016,  !- X,Y,Z ==> Vertex 3 {m}
    127.16256,59.00928,15.8496;  !- X,Y,Z ==> Vertex 4 {m}

  BuildingSurface:Detailed,
    E4 South Wall (T.N33.I98)-mirror,  !- Name
    Wall,                    !- Surface Type
    Interior Wall,           !- Construction Name
    E4 Core Plnm (T.C35),    !- Zone Name
    ,                        !- Space Name
    Surface,                 !- Outside Boundary Condition
    E4 South Wall (T.N33.I98)-mirror Reversed,  !- Outside Boundary Condition Object
    NoSun,                   !- Sun Exposure
    NoWind,                  !- Wind Exposure
    ,                        !- View Factor to Ground
    4,                       !- Number of Vertices
    20.94588648,59.00928,17.0688,  !- X,Y,Z ==> Vertex 1 {m}
    20.94588648,59.00928,15.8496,  !- X,Y,Z ==> Vertex 2 {m}
    9.144,59.00928,15.8496,  !- X,Y,Z ==> Vertex 3 {m}
    9.144,59.00928,17.0688;  !- X,Y,Z ==> Vertex 4 {m}

  BuildingSurface:Detailed,
    E4 South Wall (T.N33.I98)-mirror Reversed,  !- Name
    Wall,                    !- Surface Type
    Interior Wall,           !- Construction Name
    E4 North Perim Plnm (T.N33),  !- Zone Name
    ,                        !- Space Name
    Surface,                 !- Outside Boundary Condition
    E4 South Wall (T.N33.I98)-mirror,  !- Outside Boundary Condition Object
    NoSun,                   !- Sun Exposure
    NoWind,                  !- Wind Exposure
    ,                        !- View Factor to Ground
    4,                       !- Number of Vertices
    9.144,59.00928,17.0688,  !- X,Y,Z ==> Vertex 1 {m}
    9.144,59.00928,15.8496,  !- X,Y,Z ==> Vertex 2 {m}
    20.94588648,59.00928,15.8496,  !- X,Y,Z ==> Vertex 3 {m}
    20.94588648,59.00928,17.0688;  !- X,Y,Z ==> Vertex 4 {m}

  BuildingSurface:Detailed,
    E4 South Wall (T.N33.I99)-mirror,  !- Name
    Wall,                    !- Surface Type
    Interior Wall,           !- Construction Name
    E4 Core Plnm (T.C36),    !- Zone Name
    ,                        !- Space Name
    Surface,                 !- Outside Boundary Condition
    E4 South Wall (T.N33.I99)-mirror Reversed,  !- Outside Boundary Condition Object
    NoSun,                   !- Sun Exposure
    NoWind,                  !- Wind Exposure
    ,                        !- View Factor to Ground
    4,                       !- Number of Vertices
    127.16256,59.00928,17.0688,  !- X,Y,Z ==> Vertex 1 {m}
    127.16256,59.00928,15.8496,  !- X,Y,Z ==> Vertex 2 {m}
    20.94588648,59.00928,15.8496,  !- X,Y,Z ==> Vertex 3 {m}
    20.94588648,59.00928,17.0688;  !- X,Y,Z ==> Vertex 4 {m}

  BuildingSurface:Detailed,
    E4 South Wall (T.N33.I99)-mirror Reversed,  !- Name
    Wall,                    !- Surface Type
    Interior Wall,           !- Construction Name
    E4 North Perim Plnm (T.N33),  !- Zone Name
    ,                        !- Space Name
    Surface,                 !- Outside Boundary Condition
    E4 South Wall (T.N33.I99)-mirror,  !- Outside Boundary Condition Object
    NoSun,                   !- Sun Exposure
    NoWind,                  !- Wind Exposure
    ,                        !- View Factor to Ground
    4,                       !- Number of Vertices
    20.94588648,59.00928,17.0688,  !- X,Y,Z ==> Vertex 1 {m}
    20.94588648,59.00928,15.8496,  !- X,Y,Z ==> Vertex 2 {m}
    127.16256,59.00928,15.8496,  !- X,Y,Z ==> Vertex 3 {m}
    127.16256,59.00928,17.0688;  !- X,Y,Z ==> Vertex 4 {m}

  BuildingSurface:Detailed,
    E4 South Wall (T.S25.E17),  !- Name
    Wall,                    !- Surface Type
    Exterior Wall,           !- Construction Name
    Classroom E4 South Perim (T.S25),  !- Zone Name
    ,                        !- Space Name
    Outdoors,                !- Outside Boundary Condition
    ,                        !- Outside Boundary Condition Object
    SunExposed,              !- Sun Exposure
    WindExposed,             !- Wind Exposure
    ,                        !- View Factor to Ground
    4,                       !- Number of Vertices
    0,0,15.8496,  !- X,Y,Z ==> Vertex 1 {m}
    0,0,12.8016,  !- X,Y,Z ==> Vertex 2 {m}
    136.30656,0,12.8016,  !- X,Y,Z ==> Vertex 3 {m}
    136.30656,0,15.8496;  !- X,Y,Z ==> Vertex 4 {m}

  BuildingSurface:Detailed,
    E4 South Wall (T.S31.E21),  !- Name
    Wall,                    !- Surface Type
    Exterior Wall,           !- Construction Name
    E4 South Perim Plnm (T.S31),  !- Zone Name
    ,                        !- Space Name
    Outdoors,                !- Outside Boundary Condition
    ,                        !- Outside Boundary Condition Object
    SunExposed,              !- Sun Exposure
    WindExposed,             !- Wind Exposure
    ,                        !- View Factor to Ground
    4,                       !- Number of Vertices
    0,0,17.0688,  !- X,Y,Z ==> Vertex 1 {m}
    0,0,15.8496,  !- X,Y,Z ==> Vertex 2 {m}
    136.30656,0,15.8496,  !- X,Y,Z ==> Vertex 3 {m}
    136.30656,0,17.0688;  !- X,Y,Z ==> Vertex 4 {m}

  BuildingSurface:Detailed,
    E4 West Wall (G.E2.I8)-mirror,  !- Name
    Wall,                    !- Surface Type
    Interior Wall,           !- Construction Name
    Office E4 Core (G.C6),   !- Zone Name
    ,                        !- Space Name
    Surface,                 !- Outside Boundary Condition
    E4 West Wall (G.E2.I8)-mirror Reversed,  !- Outside Boundary Condition Object
    NoSun,                   !- Sun Exposure
    NoWind,                  !- Wind Exposure
    ,                        !- View Factor to Ground
    4,                       !- Number of Vertices
    127.16256,9.144,7.3152,  !- X,Y,Z ==> Vertex 1 {m}
    127.16256,9.144,4.2672,  !- X,Y,Z ==> Vertex 2 {m}
    127.16256,59.00928,4.2672,  !- X,Y,Z ==> Vertex 3 {m}
    127.16256,59.00928,7.3152;  !- X,Y,Z ==> Vertex 4 {m}

  BuildingSurface:Detailed,
    E4 West Wall (G.E2.I8)-mirror Reversed,  !- Name
    Wall,                    !- Surface Type
    Interior Wall,           !- Construction Name
    Classroom E4 East Perim (G.E2),  !- Zone Name
    ,                        !- Space Name
    Surface,                 !- Outside Boundary Condition
    E4 West Wall (G.E2.I8)-mirror,  !- Outside Boundary Condition Object
    NoSun,                   !- Sun Exposure
    NoWind,                  !- Wind Exposure
    ,                        !- View Factor to Ground
    4,                       !- Number of Vertices
    127.16256,59.00928,7.3152,  !- X,Y,Z ==> Vertex 1 {m}
    127.16256,59.00928,4.2672,  !- X,Y,Z ==> Vertex 2 {m}
    127.16256,9.144,4.2672,  !- X,Y,Z ==> Vertex 3 {m}
    127.16256,9.144,7.3152;  !- X,Y,Z ==> Vertex 4 {m}

  BuildingSurface:Detailed,
    E4 West Wall (G.E8.I28)-mirror,  !- Name
    Wall,                    !- Surface Type
    Interior Wall,           !- Construction Name
    E4 Core Plnm (G.C12),    !- Zone Name
    ,                        !- Space Name
    Surface,                 !- Outside Boundary Condition
    E4 West Wall (G.E8.I28)-mirror Reversed,  !- Outside Boundary Condition Object
    NoSun,                   !- Sun Exposure
    NoWind,                  !- Wind Exposure
    ,                        !- View Factor to Ground
    4,                       !- Number of Vertices
    127.16256,9.144,8.5344,  !- X,Y,Z ==> Vertex 1 {m}
    127.16256,9.144,7.3152,  !- X,Y,Z ==> Vertex 2 {m}
    127.16256,59.00928,7.3152,  !- X,Y,Z ==> Vertex 3 {m}
    127.16256,59.00928,8.5344;  !- X,Y,Z ==> Vertex 4 {m}

  BuildingSurface:Detailed,
    E4 West Wall (G.E8.I28)-mirror Reversed,  !- Name
    Wall,                    !- Surface Type
    Interior Wall,           !- Construction Name
    E4 East Perim Plnm (G.E8),  !- Zone Name
    ,                        !- Space Name
    Surface,                 !- Outside Boundary Condition
    E4 West Wall (G.E8.I28)-mirror,  !- Outside Boundary Condition Object
    NoSun,                   !- Sun Exposure
    NoWind,                  !- Wind Exposure
    ,                        !- View Factor to Ground
    4,                       !- Number of Vertices
    127.16256,59.00928,8.5344,  !- X,Y,Z ==> Vertex 1 {m}
    127.16256,59.00928,7.3152,  !- X,Y,Z ==> Vertex 2 {m}
    127.16256,9.144,7.3152,  !- X,Y,Z ==> Vertex 3 {m}
    127.16256,9.144,8.5344;  !- X,Y,Z ==> Vertex 4 {m}

  BuildingSurface:Detailed,
    E4 West Wall (G.W10.E8), !- Name
    Wall,                    !- Surface Type
    Exterior Wall,           !- Construction Name
    E4 West Perim Plnm (G.W10),  !- Zone Name
    ,                        !- Space Name
    Outdoors,                !- Outside Boundary Condition
    ,                        !- Outside Boundary Condition Object
    SunExposed,              !- Sun Exposure
    WindExposed,             !- Wind Exposure
    ,                        !- View Factor to Ground
    4,                       !- Number of Vertices
    0,68.15328,8.5344,  !- X,Y,Z ==> Vertex 1 {m}
    0,68.15328,7.3152,  !- X,Y,Z ==> Vertex 2 {m}
    0,0,7.3152,  !- X,Y,Z ==> Vertex 3 {m}
    0,0,8.5344;  !- X,Y,Z ==> Vertex 4 {m}

  BuildingSurface:Detailed,
    E4 West Wall (G.W4.E4),  !- Name
    Wall,                    !- Surface Type
    Exterior Wall,           !- Construction Name
    Classroom E4 West Perim (G.W4),  !- Zone Name
    ,                        !- Space Name
    Outdoors,                !- Outside Boundary Condition
    ,                        !- Outside Boundary Condition Object
    SunExposed,              !- Sun Exposure
    WindExposed,             !- Wind Exposure
    ,                        !- View Factor to Ground
    4,                       !- Number of Vertices
    0,68.15328,7.3152,  !- X,Y,Z ==> Vertex 1 {m}
    0,68.15328,4.2672,  !- X,Y,Z ==> Vertex 2 {m}
    0,0,4.2672,  !- X,Y,Z ==> Vertex 3 {m}
    0,0,7.3152;  !- X,Y,Z ==> Vertex 4 {m}

  BuildingSurface:Detailed,
    E4 West Wall (M.E14.I42)-mirror,  !- Name
    Wall,                    !- Surface Type
    Interior Wall,           !- Construction Name
    Office E4 Core (M.C18),  !- Zone Name
    ,                        !- Space Name
    Surface,                 !- Outside Boundary Condition
    E4 West Wall (M.E14.I42)-mirror Reversed,  !- Outside Boundary Condition Object
    NoSun,                   !- Sun Exposure
    NoWind,                  !- Wind Exposure
    ,                        !- View Factor to Ground
    4,                       !- Number of Vertices
    127.16256,9.144,11.5824,  !- X,Y,Z ==> Vertex 1 {m}
    127.16256,9.144,8.5344,  !- X,Y,Z ==> Vertex 2 {m}
    127.16256,59.00928,8.5344,  !- X,Y,Z ==> Vertex 3 {m}
    127.16256,59.00928,11.5824;  !- X,Y,Z ==> Vertex 4 {m}

  BuildingSurface:Detailed,
    E4 West Wall (M.E14.I42)-mirror Reversed,  !- Name
    Wall,                    !- Surface Type
    Interior Wall,           !- Construction Name
    Classroom E4 East Perim (M.E14),  !- Zone Name
    ,                        !- Space Name
    Surface,                 !- Outside Boundary Condition
    E4 West Wall (M.E14.I42)-mirror,  !- Outside Boundary Condition Object
    NoSun,                   !- Sun Exposure
    NoWind,                  !- Wind Exposure
    ,                        !- View Factor to Ground
    4,                       !- Number of Vertices
    127.16256,59.00928,11.5824,  !- X,Y,Z ==> Vertex 1 {m}
    127.16256,59.00928,8.5344,  !- X,Y,Z ==> Vertex 2 {m}
    127.16256,9.144,8.5344,  !- X,Y,Z ==> Vertex 3 {m}
    127.16256,9.144,11.5824;  !- X,Y,Z ==> Vertex 4 {m}

  BuildingSurface:Detailed,
    E4 West Wall (M.E20.I62)-mirror,  !- Name
    Wall,                    !- Surface Type
    Interior Wall,           !- Construction Name
    E4 Core Plnm (M.C24),    !- Zone Name
    ,                        !- Space Name
    Surface,                 !- Outside Boundary Condition
    E4 West Wall (M.E20.I62)-mirror Reversed,  !- Outside Boundary Condition Object
    NoSun,                   !- Sun Exposure
    NoWind,                  !- Wind Exposure
    ,                        !- View Factor to Ground
    4,                       !- Number of Vertices
    127.16256,9.144,12.8016,  !- X,Y,Z ==> Vertex 1 {m}
    127.16256,9.144,11.5824,  !- X,Y,Z ==> Vertex 2 {m}
    127.16256,59.00928,11.5824,  !- X,Y,Z ==> Vertex 3 {m}
    127.16256,59.00928,12.8016;  !- X,Y,Z ==> Vertex 4 {m}

  BuildingSurface:Detailed,
    E4 West Wall (M.E20.I62)-mirror Reversed,  !- Name
    Wall,                    !- Surface Type
    Interior Wall,           !- Construction Name
    E4 East Perim Plnm (M.E20),  !- Zone Name
    ,                        !- Space Name
    Surface,                 !- Outside Boundary Condition
    E4 West Wall (M.E20.I62)-mirror,  !- Outside Boundary Condition Object
    NoSun,                   !- Sun Exposure
    NoWind,                  !- Wind Exposure
    ,                        !- View Factor to Ground
    4,                       !- Number of Vertices
    127.16256,59.00928,12.8016,  !- X,Y,Z ==> Vertex 1 {m}
    127.16256,59.00928,11.5824,  !- X,Y,Z ==> Vertex 2 {m}
    127.16256,9.144,11.5824,  !- X,Y,Z ==> Vertex 3 {m}
    127.16256,9.144,12.8016;  !- X,Y,Z ==> Vertex 4 {m}

  BuildingSurface:Detailed,
    E4 West Wall (M.W16.E12),!- Name
    Wall,                    !- Surface Type
    Exterior Wall,           !- Construction Name
    Classroom E4 West Perim (M.W16),  !- Zone Name
    ,                        !- Space Name
    Outdoors,                !- Outside Boundary Condition
    ,                        !- Outside Boundary Condition Object
    SunExposed,              !- Sun Exposure
    WindExposed,             !- Wind Exposure
    ,                        !- View Factor to Ground
    4,                       !- Number of Vertices
    0,68.15328,11.5824,  !- X,Y,Z ==> Vertex 1 {m}
    0,68.15328,8.5344,  !- X,Y,Z ==> Vertex 2 {m}
    0,0,8.5344,  !- X,Y,Z ==> Vertex 3 {m}
    0,0,11.5824;  !- X,Y,Z ==> Vertex 4 {m}

  BuildingSurface:Detailed,
    E4 West Wall (M.W22.E16),!- Name
    Wall,                    !- Surface Type
    Exterior Wall,           !- Construction Name
    E4 West Perim Plnm (M.W22),  !- Zone Name
    ,                        !- Space Name
    Outdoors,                !- Outside Boundary Condition
    ,                        !- Outside Boundary Condition Object
    SunExposed,              !- Sun Exposure
    WindExposed,             !- Wind Exposure
    ,                        !- View Factor to Ground
    4,                       !- Number of Vertices
    0,68.15328,12.8016,  !- X,Y,Z ==> Vertex 1 {m}
    0,68.15328,11.5824,  !- X,Y,Z ==> Vertex 2 {m}
    0,0,11.5824,  !- X,Y,Z ==> Vertex 3 {m}
    0,0,12.8016;  !- X,Y,Z ==> Vertex 4 {m}

  BuildingSurface:Detailed,
    E4 West Wall (T.E26.I76)-mirror,  !- Name
    Wall,                    !- Surface Type
    Interior Wall,           !- Construction Name
    Office E4 Core (T.C30),  !- Zone Name
    ,                        !- Space Name
    Surface,                 !- Outside Boundary Condition
    E4 West Wall (T.E26.I76)-mirror Reversed,  !- Outside Boundary Condition Object
    NoSun,                   !- Sun Exposure
    NoWind,                  !- Wind Exposure
    ,                        !- View Factor to Ground
    4,                       !- Number of Vertices
    127.16256,9.144,15.8496,  !- X,Y,Z ==> Vertex 1 {m}
    127.16256,9.144,12.8016,  !- X,Y,Z ==> Vertex 2 {m}
    127.16256,59.00928,12.8016,  !- X,Y,Z ==> Vertex 3 {m}
    127.16256,59.00928,15.8496;  !- X,Y,Z ==> Vertex 4 {m}

  BuildingSurface:Detailed,
    E4 West Wall (T.E26.I76)-mirror Reversed,  !- Name
    Wall,                    !- Surface Type
    Interior Wall,           !- Construction Name
    Classroom E4 East Perim (T.E26),  !- Zone Name
    ,                        !- Space Name
    Surface,                 !- Outside Boundary Condition
    E4 West Wall (T.E26.I76)-mirror,  !- Outside Boundary Condition Object
    NoSun,                   !- Sun Exposure
    NoWind,                  !- Wind Exposure
    ,                        !- View Factor to Ground
    4,                       !- Number of Vertices
    127.16256,59.00928,15.8496,  !- X,Y,Z ==> Vertex 1 {m}
    127.16256,59.00928,12.8016,  !- X,Y,Z ==> Vertex 2 {m}
    127.16256,9.144,12.8016,  !- X,Y,Z ==> Vertex 3 {m}
    127.16256,9.144,15.8496;  !- X,Y,Z ==> Vertex 4 {m}

  BuildingSurface:Detailed,
    E4 West Wall (T.E32.I96)-mirror,  !- Name
    Wall,                    !- Surface Type
    Interior Wall,           !- Construction Name
    E4 Core Plnm (T.C36),    !- Zone Name
    ,                        !- Space Name
    Surface,                 !- Outside Boundary Condition
    E4 West Wall (T.E32.I96)-mirror Reversed,  !- Outside Boundary Condition Object
    NoSun,                   !- Sun Exposure
    NoWind,                  !- Wind Exposure
    ,                        !- View Factor to Ground
    4,                       !- Number of Vertices
    127.16256,9.144,17.0688,  !- X,Y,Z ==> Vertex 1 {m}
    127.16256,9.144,15.8496,  !- X,Y,Z ==> Vertex 2 {m}
    127.16256,59.00928,15.8496,  !- X,Y,Z ==> Vertex 3 {m}
    127.16256,59.00928,17.0688;  !- X,Y,Z ==> Vertex 4 {m}

  BuildingSurface:Detailed,
    E4 West Wall (T.E32.I96)-mirror Reversed,  !- Name
    Wall,                    !- Surface Type
    Interior Wall,           !- Construction Name
    E4 East Perim Plnm (T.E32),  !- Zone Name
    ,                        !- Space Name
    Surface,                 !- Outside Boundary Condition
    E4 West Wall (T.E32.I96)-mirror,  !- Outside Boundary Condition Object
    NoSun,                   !- Sun Exposure
    NoWind,                  !- Wind Exposure
    ,                        !- View Factor to Ground
    4,                       !- Number of Vertices
    127.16256,59.00928,17.0688,  !- X,Y,Z ==> Vertex 1 {m}
    127.16256,59.00928,15.8496,  !- X,Y,Z ==> Vertex 2 {m}
    127.16256,9.144,15.8496,  !- X,Y,Z ==> Vertex 3 {m}
    127.16256,9.144,17.0688;  !- X,Y,Z ==> Vertex 4 {m}

  BuildingSurface:Detailed,
    E4 West Wall (T.W28.E20),!- Name
    Wall,                    !- Surface Type
    Exterior Wall,           !- Construction Name
    Classroom E4 West Perim (T.W28),  !- Zone Name
    ,                        !- Space Name
    Outdoors,                !- Outside Boundary Condition
    ,                        !- Outside Boundary Condition Object
    SunExposed,              !- Sun Exposure
    WindExposed,             !- Wind Exposure
    ,                        !- View Factor to Ground
    4,                       !- Number of Vertices
    0,68.15328,15.8496,  !- X,Y,Z ==> Vertex 1 {m}
    0,68.15328,12.8016,  !- X,Y,Z ==> Vertex 2 {m}
    0,0,12.8016,  !- X,Y,Z ==> Vertex 3 {m}
    0,0,15.8496;  !- X,Y,Z ==> Vertex 4 {m}

  BuildingSurface:Detailed,
    E4 West Wall (T.W34.E27),!- Name
    Wall,                    !- Surface Type
    Exterior Wall,           !- Construction Name
    E4 West Perim Plnm (T.W34),  !- Zone Name
    ,                        !- Space Name
    Outdoors,                !- Outside Boundary Condition
    ,                        !- Outside Boundary Condition Object
    SunExposed,              !- Sun Exposure
    WindExposed,             !- Wind Exposure
    ,                        !- View Factor to Ground
    4,                       !- Number of Vertices
    0,68.15328,17.0688,  !- X,Y,Z ==> Vertex 1 {m}
    0,68.15328,15.8496,  !- X,Y,Z ==> Vertex 2 {m}
    0,0,15.8496,  !- X,Y,Z ==> Vertex 3 {m}
    0,0,17.0688;  !- X,Y,Z ==> Vertex 4 {m}

  BuildingSurface:Detailed,
    E9 East Wall (G.C3.E7),  !- Name
    Wall,                    !- Surface Type
    Exterior Wall,           !- Construction Name
    Corridor E9 Core (G.C3), !- Zone Name
    ,                        !- Space Name
    Outdoors,                !- Outside Boundary Condition
    ,                        !- Outside Boundary Condition Object
    SunExposed,              !- Sun Exposure
    WindExposed,             !- Wind Exposure
    ,                        !- View Factor to Ground
    4,                       !- Number of Vertices
    120.5865,286.798512,2.7432,  !- X,Y,Z ==> Vertex 1 {m}
    120.5865,286.798512,0,  !- X,Y,Z ==> Vertex 2 {m}
    120.5865,288.663888,0,  !- X,Y,Z ==> Vertex 3 {m}
    120.5865,288.663888,2.7432;  !- X,Y,Z ==> Vertex 4 {m}

  BuildingSurface:Detailed,
    E9 East Wall (G.N1.E3),  !- Name
    Wall,                    !- Surface Type
    Exterior Wall,           !- Construction Name
    Dorm E9 North Perim (G.N1),  !- Zone Name
    ,                        !- Space Name
    Outdoors,                !- Outside Boundary Condition
    ,                        !- Outside Boundary Condition Object
    SunExposed,              !- Sun Exposure
    WindExposed,             !- Wind Exposure
    ,                        !- View Factor to Ground
    4,                       !- Number of Vertices
    120.5865,288.663888,2.7432,  !- X,Y,Z ==> Vertex 1 {m}
    120.5865,288.663888,0,  !- X,Y,Z ==> Vertex 2 {m}
    120.5865,293.94912,0,  !- X,Y,Z ==> Vertex 3 {m}
    120.5865,293.94912,2.7432;  !- X,Y,Z ==> Vertex 4 {m}

  BuildingSurface:Detailed,
    E9 East Wall (G.S2.E5),  !- Name
    Wall,                    !- Surface Type
    Exterior Wall,           !- Construction Name
    Dorm E9 South Perim (G.S2),  !- Zone Name
    ,                        !- Space Name
    Outdoors,                !- Outside Boundary Condition
    ,                        !- Outside Boundary Condition Object
    SunExposed,              !- Sun Exposure
    WindExposed,             !- Wind Exposure
    ,                        !- View Factor to Ground
    4,                       !- Number of Vertices
    120.5865,281.51328,2.7432,  !- X,Y,Z ==> Vertex 1 {m}
    120.5865,281.51328,0,  !- X,Y,Z ==> Vertex 2 {m}
    120.5865,286.798512,0,  !- X,Y,Z ==> Vertex 3 {m}
    120.5865,286.798512,2.7432;  !- X,Y,Z ==> Vertex 4 {m}

  BuildingSurface:Detailed,
    E9 East Wall (M.C6.E15), !- Name
    Wall,                    !- Surface Type
    Exterior Wall,           !- Construction Name
    Corridor E9 Core (M.C6), !- Zone Name
    ,                        !- Space Name
    Outdoors,                !- Outside Boundary Condition
    ,                        !- Outside Boundary Condition Object
    SunExposed,              !- Sun Exposure
    WindExposed,             !- Wind Exposure
    ,                        !- View Factor to Ground
    4,                       !- Number of Vertices
    120.5865,286.798512,5.4864,  !- X,Y,Z ==> Vertex 1 {m}
    120.5865,286.798512,2.7432,  !- X,Y,Z ==> Vertex 2 {m}
    120.5865,288.663888,2.7432,  !- X,Y,Z ==> Vertex 3 {m}
    120.5865,288.663888,5.4864;  !- X,Y,Z ==> Vertex 4 {m}

  BuildingSurface:Detailed,
    E9 East Wall (M.N4.E11), !- Name
    Wall,                    !- Surface Type
    Exterior Wall,           !- Construction Name
    Dorm E9 North Perim (M.N4),  !- Zone Name
    ,                        !- Space Name
    Outdoors,                !- Outside Boundary Condition
    ,                        !- Outside Boundary Condition Object
    SunExposed,              !- Sun Exposure
    WindExposed,             !- Wind Exposure
    ,                        !- View Factor to Ground
    4,                       !- Number of Vertices
    120.5865,288.663888,5.4864,  !- X,Y,Z ==> Vertex 1 {m}
    120.5865,288.663888,2.7432,  !- X,Y,Z ==> Vertex 2 {m}
    120.5865,293.94912,2.7432,  !- X,Y,Z ==> Vertex 3 {m}
    120.5865,293.94912,5.4864;  !- X,Y,Z ==> Vertex 4 {m}

  BuildingSurface:Detailed,
    E9 East Wall (M.S5.E13), !- Name
    Wall,                    !- Surface Type
    Exterior Wall,           !- Construction Name
    Dorm E9 South Perim (M.S5),  !- Zone Name
    ,                        !- Space Name
    Outdoors,                !- Outside Boundary Condition
    ,                        !- Outside Boundary Condition Object
    SunExposed,              !- Sun Exposure
    WindExposed,             !- Wind Exposure
    ,                        !- View Factor to Ground
    4,                       !- Number of Vertices
    120.5865,281.51328,5.4864,  !- X,Y,Z ==> Vertex 1 {m}
    120.5865,281.51328,2.7432,  !- X,Y,Z ==> Vertex 2 {m}
    120.5865,286.798512,2.7432,  !- X,Y,Z ==> Vertex 3 {m}
    120.5865,286.798512,5.4864;  !- X,Y,Z ==> Vertex 4 {m}

  BuildingSurface:Detailed,
    E9 East Wall (T.C9.E25), !- Name
    Wall,                    !- Surface Type
    Exterior Wall,           !- Construction Name
    Corridor E9 Core (T.C9), !- Zone Name
    ,                        !- Space Name
    Outdoors,                !- Outside Boundary Condition
    ,                        !- Outside Boundary Condition Object
    SunExposed,              !- Sun Exposure
    WindExposed,             !- Wind Exposure
    ,                        !- View Factor to Ground
    4,                       !- Number of Vertices
    120.5865,286.798512,8.2296,  !- X,Y,Z ==> Vertex 1 {m}
    120.5865,286.798512,5.4864,  !- X,Y,Z ==> Vertex 2 {m}
    120.5865,288.663888,5.4864,  !- X,Y,Z ==> Vertex 3 {m}
    120.5865,288.663888,8.2296;  !- X,Y,Z ==> Vertex 4 {m}

  BuildingSurface:Detailed,
    E9 East Wall (T.N7.E19), !- Name
    Wall,                    !- Surface Type
    Exterior Wall,           !- Construction Name
    Dorm E9 North Perim (T.N7),  !- Zone Name
    ,                        !- Space Name
    Outdoors,                !- Outside Boundary Condition
    ,                        !- Outside Boundary Condition Object
    SunExposed,              !- Sun Exposure
    WindExposed,             !- Wind Exposure
    ,                        !- View Factor to Ground
    4,                       !- Number of Vertices
    120.5865,288.663888,8.2296,  !- X,Y,Z ==> Vertex 1 {m}
    120.5865,288.663888,5.4864,  !- X,Y,Z ==> Vertex 2 {m}
    120.5865,293.94912,5.4864,  !- X,Y,Z ==> Vertex 3 {m}
    120.5865,293.94912,8.2296;  !- X,Y,Z ==> Vertex 4 {m}

  BuildingSurface:Detailed,
    E9 East Wall (T.S8.E22), !- Name
    Wall,                    !- Surface Type
    Exterior Wall,           !- Construction Name
    Dorm E9 South Perim (T.S8),  !- Zone Name
    ,                        !- Space Name
    Outdoors,                !- Outside Boundary Condition
    ,                        !- Outside Boundary Condition Object
    SunExposed,              !- Sun Exposure
    WindExposed,             !- Wind Exposure
    ,                        !- View Factor to Ground
    4,                       !- Number of Vertices
    120.5865,281.51328,8.2296,  !- X,Y,Z ==> Vertex 1 {m}
    120.5865,281.51328,5.4864,  !- X,Y,Z ==> Vertex 2 {m}
    120.5865,286.798512,5.4864,  !- X,Y,Z ==> Vertex 3 {m}
    120.5865,286.798512,8.2296;  !- X,Y,Z ==> Vertex 4 {m}

  BuildingSurface:Detailed,
    E9 Flr (G.C3.I5),        !- Name
    Floor,                   !- Surface Type
    E9 Flr (G.C3.I5) SlabOnOrBelowGradeF073,  !- Construction Name
    Corridor E9 Core (G.C3), !- Zone Name
    ,                        !- Space Name
    GroundFCfactorMethod,    !- Outside Boundary Condition
    ,                        !- Outside Boundary Condition Object
    NoSun,                   !- Sun Exposure
    NoWind,                  !- Wind Exposure
    ,                        !- View Factor to Ground
    4,                       !- Number of Vertices
    120.5865,288.663888,0,  !- X,Y,Z ==> Vertex 1 {m}
    120.5865,286.798512,0,  !- X,Y,Z ==> Vertex 2 {m}
    -66.05778,286.798512,0,  !- X,Y,Z ==> Vertex 3 {m}
    -66.05778,288.663888,0;  !- X,Y,Z ==> Vertex 4 {m}

  BuildingSurface:Detailed,
    E9 Flr (G.N1.I1),        !- Name
    Floor,                   !- Surface Type
    E9 Flr (G.N1.I1) SlabOnOrBelowGradeF073,  !- Construction Name
    Dorm E9 North Perim (G.N1),  !- Zone Name
    ,                        !- Space Name
    GroundFCfactorMethod,    !- Outside Boundary Condition
    ,                        !- Outside Boundary Condition Object
    NoSun,                   !- Sun Exposure
    NoWind,                  !- Wind Exposure
    ,                        !- View Factor to Ground
    4,                       !- Number of Vertices
    120.5865,293.94912,0,  !- X,Y,Z ==> Vertex 1 {m}
    120.5865,288.663888,0,  !- X,Y,Z ==> Vertex 2 {m}
    -66.05778,288.663888,0,  !- X,Y,Z ==> Vertex 3 {m}
    -66.05778,293.94912,0;  !- X,Y,Z ==> Vertex 4 {m}

  BuildingSurface:Detailed,
    E9 Flr (G.S2.I3),        !- Name
    Floor,                   !- Surface Type
    E9 Flr (G.S2.I3) SlabOnOrBelowGradeF073,  !- Construction Name
    Dorm E9 South Perim (G.S2),  !- Zone Name
    ,                        !- Space Name
    GroundFCfactorMethod,    !- Outside Boundary Condition
    ,                        !- Outside Boundary Condition Object
    NoSun,                   !- Sun Exposure
    NoWind,                  !- Wind Exposure
    ,                        !- View Factor to Ground
    4,                       !- Number of Vertices
    120.5865,286.798512,0,  !- X,Y,Z ==> Vertex 1 {m}
    120.5865,281.51328,0,  !- X,Y,Z ==> Vertex 2 {m}
    -66.05778,281.51328,0,  !- X,Y,Z ==> Vertex 3 {m}
    -66.05778,286.798512,0;  !- X,Y,Z ==> Vertex 4 {m}

  BuildingSurface:Detailed,
    E9 Flr (M.C6.I10),       !- Name
    Floor,                   !- Surface Type
    Interior Floor,          !- Construction Name
    Corridor E9 Core (M.C6), !- Zone Name
    ,                        !- Space Name
    Surface,                 !- Outside Boundary Condition
    E9 Flr (M.C6.I10) Reversed,  !- Outside Boundary Condition Object
    NoSun,                   !- Sun Exposure
    NoWind,                  !- Wind Exposure
    ,                        !- View Factor to Ground
    4,                       !- Number of Vertices
    120.5865,288.663888,2.7432,  !- X,Y,Z ==> Vertex 1 {m}
    120.5865,286.798512,2.7432,  !- X,Y,Z ==> Vertex 2 {m}
    -66.05778,286.798512,2.7432,  !- X,Y,Z ==> Vertex 3 {m}
    -66.05778,288.663888,2.7432;  !- X,Y,Z ==> Vertex 4 {m}

  BuildingSurface:Detailed,
    E9 Flr (M.C6.I10) Reversed,  !- Name
    Ceiling,                 !- Surface Type
    Radiant Interior Ceiling,!- Construction Name
    Corridor E9 Core (G.C3), !- Zone Name
    ,                        !- Space Name
    Surface,                 !- Outside Boundary Condition
    E9 Flr (M.C6.I10),       !- Outside Boundary Condition Object
    NoSun,                   !- Sun Exposure
    NoWind,                  !- Wind Exposure
    ,                        !- View Factor to Ground
    4,                       !- Number of Vertices
    -66.05778,288.663888,2.7432,  !- X,Y,Z ==> Vertex 1 {m}
    -66.05778,286.798512,2.7432,  !- X,Y,Z ==> Vertex 2 {m}
    120.5865,286.798512,2.7432,  !- X,Y,Z ==> Vertex 3 {m}
    120.5865,288.663888,2.7432;  !- X,Y,Z ==> Vertex 4 {m}

  BuildingSurface:Detailed,
    E9 Flr (M.N4.I6),        !- Name
    Floor,                   !- Surface Type
    Interior Floor,          !- Construction Name
    Dorm E9 North Perim (M.N4),  !- Zone Name
    ,                        !- Space Name
    Surface,                 !- Outside Boundary Condition
    E9 Flr (M.N4.I6) Reversed,  !- Outside Boundary Condition Object
    NoSun,                   !- Sun Exposure
    NoWind,                  !- Wind Exposure
    ,                        !- View Factor to Ground
    4,                       !- Number of Vertices
    120.5865,293.94912,2.7432,  !- X,Y,Z ==> Vertex 1 {m}
    120.5865,288.663888,2.7432,  !- X,Y,Z ==> Vertex 2 {m}
    -66.05778,288.663888,2.7432,  !- X,Y,Z ==> Vertex 3 {m}
    -66.05778,293.94912,2.7432;  !- X,Y,Z ==> Vertex 4 {m}

  BuildingSurface:Detailed,
    E9 Flr (M.N4.I6) Reversed,  !- Name
    Ceiling,                 !- Surface Type
    Radiant Interior Ceiling,!- Construction Name
    Dorm E9 North Perim (G.N1),  !- Zone Name
    ,                        !- Space Name
    Surface,                 !- Outside Boundary Condition
    E9 Flr (M.N4.I6),        !- Outside Boundary Condition Object
    NoSun,                   !- Sun Exposure
    NoWind,                  !- Wind Exposure
    ,                        !- View Factor to Ground
    4,                       !- Number of Vertices
    -66.05778,293.94912,2.7432,  !- X,Y,Z ==> Vertex 1 {m}
    -66.05778,288.663888,2.7432,  !- X,Y,Z ==> Vertex 2 {m}
    120.5865,288.663888,2.7432,  !- X,Y,Z ==> Vertex 3 {m}
    120.5865,293.94912,2.7432;  !- X,Y,Z ==> Vertex 4 {m}

  BuildingSurface:Detailed,
    E9 Flr (M.S5.I8),        !- Name
    Floor,                   !- Surface Type
    Interior Floor,          !- Construction Name
    Dorm E9 South Perim (M.S5),  !- Zone Name
    ,                        !- Space Name
    Surface,                 !- Outside Boundary Condition
    E9 Flr (M.S5.I8) Reversed,  !- Outside Boundary Condition Object
    NoSun,                   !- Sun Exposure
    NoWind,                  !- Wind Exposure
    ,                        !- View Factor to Ground
    4,                       !- Number of Vertices
    120.5865,286.798512,2.7432,  !- X,Y,Z ==> Vertex 1 {m}
    120.5865,281.51328,2.7432,  !- X,Y,Z ==> Vertex 2 {m}
    -66.05778,281.51328,2.7432,  !- X,Y,Z ==> Vertex 3 {m}
    -66.05778,286.798512,2.7432;  !- X,Y,Z ==> Vertex 4 {m}

  BuildingSurface:Detailed,
    E9 Flr (M.S5.I8) Reversed,  !- Name
    Ceiling,                 !- Surface Type
    Radiant Interior Ceiling,!- Construction Name
    Dorm E9 South Perim (G.S2),  !- Zone Name
    ,                        !- Space Name
    Surface,                 !- Outside Boundary Condition
    E9 Flr (M.S5.I8),        !- Outside Boundary Condition Object
    NoSun,                   !- Sun Exposure
    NoWind,                  !- Wind Exposure
    ,                        !- View Factor to Ground
    4,                       !- Number of Vertices
    -66.05778,286.798512,2.7432,  !- X,Y,Z ==> Vertex 1 {m}
    -66.05778,281.51328,2.7432,  !- X,Y,Z ==> Vertex 2 {m}
    120.5865,281.51328,2.7432,  !- X,Y,Z ==> Vertex 3 {m}
    120.5865,286.798512,2.7432;  !- X,Y,Z ==> Vertex 4 {m}

  BuildingSurface:Detailed,
    E9 Flr (T.C9.I15),       !- Name
    Floor,                   !- Surface Type
    Interior Floor,          !- Construction Name
    Corridor E9 Core (T.C9), !- Zone Name
    ,                        !- Space Name
    Surface,                 !- Outside Boundary Condition
    E9 Flr (T.C9.I15) Reversed,  !- Outside Boundary Condition Object
    NoSun,                   !- Sun Exposure
    NoWind,                  !- Wind Exposure
    ,                        !- View Factor to Ground
    4,                       !- Number of Vertices
    120.5865,288.663888,5.4864,  !- X,Y,Z ==> Vertex 1 {m}
    120.5865,286.798512,5.4864,  !- X,Y,Z ==> Vertex 2 {m}
    -66.05778,286.798512,5.4864,  !- X,Y,Z ==> Vertex 3 {m}
    -66.05778,288.663888,5.4864;  !- X,Y,Z ==> Vertex 4 {m}

  BuildingSurface:Detailed,
    E9 Flr (T.C9.I15) Reversed,  !- Name
    Ceiling,                 !- Surface Type
    Radiant Interior Ceiling,!- Construction Name
    Corridor E9 Core (M.C6), !- Zone Name
    ,                        !- Space Name
    Surface,                 !- Outside Boundary Condition
    E9 Flr (T.C9.I15),       !- Outside Boundary Condition Object
    NoSun,                   !- Sun Exposure
    NoWind,                  !- Wind Exposure
    ,                        !- View Factor to Ground
    4,                       !- Number of Vertices
    -66.05778,288.663888,5.4864,  !- X,Y,Z ==> Vertex 1 {m}
    -66.05778,286.798512,5.4864,  !- X,Y,Z ==> Vertex 2 {m}
    120.5865,286.798512,5.4864,  !- X,Y,Z ==> Vertex 3 {m}
    120.5865,288.663888,5.4864;  !- X,Y,Z ==> Vertex 4 {m}

  BuildingSurface:Detailed,
    E9 Flr (T.N7.I11),       !- Name
    Floor,                   !- Surface Type
    Interior Floor,          !- Construction Name
    Dorm E9 North Perim (T.N7),  !- Zone Name
    ,                        !- Space Name
    Surface,                 !- Outside Boundary Condition
    E9 Flr (T.N7.I11) Reversed,  !- Outside Boundary Condition Object
    NoSun,                   !- Sun Exposure
    NoWind,                  !- Wind Exposure
    ,                        !- View Factor to Ground
    4,                       !- Number of Vertices
    120.5865,293.94912,5.4864,  !- X,Y,Z ==> Vertex 1 {m}
    120.5865,288.663888,5.4864,  !- X,Y,Z ==> Vertex 2 {m}
    -66.05778,288.663888,5.4864,  !- X,Y,Z ==> Vertex 3 {m}
    -66.05778,293.94912,5.4864;  !- X,Y,Z ==> Vertex 4 {m}

  BuildingSurface:Detailed,
    E9 Flr (T.N7.I11) Reversed,  !- Name
    Ceiling,                 !- Surface Type
    Radiant Interior Ceiling,!- Construction Name
    Dorm E9 North Perim (M.N4),  !- Zone Name
    ,                        !- Space Name
    Surface,                 !- Outside Boundary Condition
    E9 Flr (T.N7.I11),       !- Outside Boundary Condition Object
    NoSun,                   !- Sun Exposure
    NoWind,                  !- Wind Exposure
    ,                        !- View Factor to Ground
    4,                       !- Number of Vertices
    -66.05778,293.94912,5.4864,  !- X,Y,Z ==> Vertex 1 {m}
    -66.05778,288.663888,5.4864,  !- X,Y,Z ==> Vertex 2 {m}
    120.5865,288.663888,5.4864,  !- X,Y,Z ==> Vertex 3 {m}
    120.5865,293.94912,5.4864;  !- X,Y,Z ==> Vertex 4 {m}

  BuildingSurface:Detailed,
    E9 Flr (T.S8.I13),       !- Name
    Floor,                   !- Surface Type
    Interior Floor,          !- Construction Name
    Dorm E9 South Perim (T.S8),  !- Zone Name
    ,                        !- Space Name
    Surface,                 !- Outside Boundary Condition
    E9 Flr (T.S8.I13) Reversed,  !- Outside Boundary Condition Object
    NoSun,                   !- Sun Exposure
    NoWind,                  !- Wind Exposure
    ,                        !- View Factor to Ground
    4,                       !- Number of Vertices
    120.5865,286.798512,5.4864,  !- X,Y,Z ==> Vertex 1 {m}
    120.5865,281.51328,5.4864,  !- X,Y,Z ==> Vertex 2 {m}
    -66.05778,281.51328,5.4864,  !- X,Y,Z ==> Vertex 3 {m}
    -66.05778,286.798512,5.4864;  !- X,Y,Z ==> Vertex 4 {m}

  BuildingSurface:Detailed,
    E9 Flr (T.S8.I13) Reversed,  !- Name
    Ceiling,                 !- Surface Type
    Radiant Interior Ceiling,!- Construction Name
    Dorm E9 South Perim (M.S5),  !- Zone Name
    ,                        !- Space Name
    Surface,                 !- Outside Boundary Condition
    E9 Flr (T.S8.I13),       !- Outside Boundary Condition Object
    NoSun,                   !- Sun Exposure
    NoWind,                  !- Wind Exposure
    ,                        !- View Factor to Ground
    4,                       !- Number of Vertices
    -66.05778,286.798512,5.4864,  !- X,Y,Z ==> Vertex 1 {m}
    -66.05778,281.51328,5.4864,  !- X,Y,Z ==> Vertex 2 {m}
    120.5865,281.51328,5.4864,  !- X,Y,Z ==> Vertex 3 {m}
    120.5865,286.798512,5.4864;  !- X,Y,Z ==> Vertex 4 {m}

  BuildingSurface:Detailed,
    E9 North Wall (G.N1.E1), !- Name
    Wall,                    !- Surface Type
    Exterior Wall,           !- Construction Name
    Dorm E9 North Perim (G.N1),  !- Zone Name
    ,                        !- Space Name
    Outdoors,                !- Outside Boundary Condition
    ,                        !- Outside Boundary Condition Object
    SunExposed,              !- Sun Exposure
    WindExposed,             !- Wind Exposure
    ,                        !- View Factor to Ground
    4,                       !- Number of Vertices
    120.5865,293.94912,2.7432,  !- X,Y,Z ==> Vertex 1 {m}
    120.5865,293.94912,0,  !- X,Y,Z ==> Vertex 2 {m}
    -66.05778,293.94912,0,  !- X,Y,Z ==> Vertex 3 {m}
    -66.05778,293.94912,2.7432;  !- X,Y,Z ==> Vertex 4 {m}

  BuildingSurface:Detailed,
    E9 North Wall (G.S2.I4)-mirror,  !- Name
    Wall,                    !- Surface Type
    Interior Wall,           !- Construction Name
    Corridor E9 Core (G.C3), !- Zone Name
    ,                        !- Space Name
    Surface,                 !- Outside Boundary Condition
    E9 North Wall (G.S2.I4)-mirror Reversed,  !- Outside Boundary Condition Object
    NoSun,                   !- Sun Exposure
    NoWind,                  !- Wind Exposure
    ,                        !- View Factor to Ground
    4,                       !- Number of Vertices
    -66.05778,286.798512,2.7432,  !- X,Y,Z ==> Vertex 1 {m}
    -66.05778,286.798512,0,  !- X,Y,Z ==> Vertex 2 {m}
    120.5865,286.798512,0,  !- X,Y,Z ==> Vertex 3 {m}
    120.5865,286.798512,2.7432;  !- X,Y,Z ==> Vertex 4 {m}

  BuildingSurface:Detailed,
    E9 North Wall (G.S2.I4)-mirror Reversed,  !- Name
    Wall,                    !- Surface Type
    Interior Wall,           !- Construction Name
    Dorm E9 South Perim (G.S2),  !- Zone Name
    ,                        !- Space Name
    Surface,                 !- Outside Boundary Condition
    E9 North Wall (G.S2.I4)-mirror,  !- Outside Boundary Condition Object
    NoSun,                   !- Sun Exposure
    NoWind,                  !- Wind Exposure
    ,                        !- View Factor to Ground
    4,                       !- Number of Vertices
    120.5865,286.798512,2.7432,  !- X,Y,Z ==> Vertex 1 {m}
    120.5865,286.798512,0,  !- X,Y,Z ==> Vertex 2 {m}
    -66.05778,286.798512,0,  !- X,Y,Z ==> Vertex 3 {m}
    -66.05778,286.798512,2.7432;  !- X,Y,Z ==> Vertex 4 {m}

  BuildingSurface:Detailed,
    E9 North Wall (M.N4.E9), !- Name
    Wall,                    !- Surface Type
    Exterior Wall,           !- Construction Name
    Dorm E9 North Perim (M.N4),  !- Zone Name
    ,                        !- Space Name
    Outdoors,                !- Outside Boundary Condition
    ,                        !- Outside Boundary Condition Object
    SunExposed,              !- Sun Exposure
    WindExposed,             !- Wind Exposure
    ,                        !- View Factor to Ground
    4,                       !- Number of Vertices
    120.5865,293.94912,5.4864,  !- X,Y,Z ==> Vertex 1 {m}
    120.5865,293.94912,2.7432,  !- X,Y,Z ==> Vertex 2 {m}
    -66.05778,293.94912,2.7432,  !- X,Y,Z ==> Vertex 3 {m}
    -66.05778,293.94912,5.4864;  !- X,Y,Z ==> Vertex 4 {m}

  BuildingSurface:Detailed,
    E9 North Wall (M.S5.I9)-mirror,  !- Name
    Wall,                    !- Surface Type
    Interior Wall,           !- Construction Name
    Corridor E9 Core (M.C6), !- Zone Name
    ,                        !- Space Name
    Surface,                 !- Outside Boundary Condition
    E9 North Wall (M.S5.I9)-mirror Reversed,  !- Outside Boundary Condition Object
    NoSun,                   !- Sun Exposure
    NoWind,                  !- Wind Exposure
    ,                        !- View Factor to Ground
    4,                       !- Number of Vertices
    -66.05778,286.798512,5.4864,  !- X,Y,Z ==> Vertex 1 {m}
    -66.05778,286.798512,2.7432,  !- X,Y,Z ==> Vertex 2 {m}
    120.5865,286.798512,2.7432,  !- X,Y,Z ==> Vertex 3 {m}
    120.5865,286.798512,5.4864;  !- X,Y,Z ==> Vertex 4 {m}

  BuildingSurface:Detailed,
    E9 North Wall (M.S5.I9)-mirror Reversed,  !- Name
    Wall,                    !- Surface Type
    Interior Wall,           !- Construction Name
    Dorm E9 South Perim (M.S5),  !- Zone Name
    ,                        !- Space Name
    Surface,                 !- Outside Boundary Condition
    E9 North Wall (M.S5.I9)-mirror,  !- Outside Boundary Condition Object
    NoSun,                   !- Sun Exposure
    NoWind,                  !- Wind Exposure
    ,                        !- View Factor to Ground
    4,                       !- Number of Vertices
    120.5865,286.798512,5.4864,  !- X,Y,Z ==> Vertex 1 {m}
    120.5865,286.798512,2.7432,  !- X,Y,Z ==> Vertex 2 {m}
    -66.05778,286.798512,2.7432,  !- X,Y,Z ==> Vertex 3 {m}
    -66.05778,286.798512,5.4864;  !- X,Y,Z ==> Vertex 4 {m}

  BuildingSurface:Detailed,
    E9 North Wall (T.N7.E17),!- Name
    Wall,                    !- Surface Type
    Exterior Wall,           !- Construction Name
    Dorm E9 North Perim (T.N7),  !- Zone Name
    ,                        !- Space Name
    Outdoors,                !- Outside Boundary Condition
    ,                        !- Outside Boundary Condition Object
    SunExposed,              !- Sun Exposure
    WindExposed,             !- Wind Exposure
    ,                        !- View Factor to Ground
    4,                       !- Number of Vertices
    120.5865,293.94912,8.2296,  !- X,Y,Z ==> Vertex 1 {m}
    120.5865,293.94912,5.4864,  !- X,Y,Z ==> Vertex 2 {m}
    -66.05778,293.94912,5.4864,  !- X,Y,Z ==> Vertex 3 {m}
    -66.05778,293.94912,8.2296;  !- X,Y,Z ==> Vertex 4 {m}

  BuildingSurface:Detailed,
    E9 North Wall (T.S8.I14)-mirror,  !- Name
    Wall,                    !- Surface Type
    Interior Wall,           !- Construction Name
    Corridor E9 Core (T.C9), !- Zone Name
    ,                        !- Space Name
    Surface,                 !- Outside Boundary Condition
    E9 North Wall (T.S8.I14)-mirror Reversed,  !- Outside Boundary Condition Object
    NoSun,                   !- Sun Exposure
    NoWind,                  !- Wind Exposure
    ,                        !- View Factor to Ground
    4,                       !- Number of Vertices
    -66.05778,286.798512,8.2296,  !- X,Y,Z ==> Vertex 1 {m}
    -66.05778,286.798512,5.4864,  !- X,Y,Z ==> Vertex 2 {m}
    120.5865,286.798512,5.4864,  !- X,Y,Z ==> Vertex 3 {m}
    120.5865,286.798512,8.2296;  !- X,Y,Z ==> Vertex 4 {m}

  BuildingSurface:Detailed,
    E9 North Wall (T.S8.I14)-mirror Reversed,  !- Name
    Wall,                    !- Surface Type
    Interior Wall,           !- Construction Name
    Dorm E9 South Perim (T.S8),  !- Zone Name
    ,                        !- Space Name
    Surface,                 !- Outside Boundary Condition
    E9 North Wall (T.S8.I14)-mirror,  !- Outside Boundary Condition Object
    NoSun,                   !- Sun Exposure
    NoWind,                  !- Wind Exposure
    ,                        !- View Factor to Ground
    4,                       !- Number of Vertices
    120.5865,286.798512,8.2296,  !- X,Y,Z ==> Vertex 1 {m}
    120.5865,286.798512,5.4864,  !- X,Y,Z ==> Vertex 2 {m}
    -66.05778,286.798512,5.4864,  !- X,Y,Z ==> Vertex 3 {m}
    -66.05778,286.798512,8.2296;  !- X,Y,Z ==> Vertex 4 {m}

  BuildingSurface:Detailed,
    E9 Roof (T.C9.E27),      !- Name
    Roof,                    !- Surface Type
    Exterior Roof,           !- Construction Name
    Corridor E9 Core (T.C9), !- Zone Name
    ,                        !- Space Name
    Outdoors,                !- Outside Boundary Condition
    ,                        !- Outside Boundary Condition Object
    SunExposed,              !- Sun Exposure
    WindExposed,             !- Wind Exposure
    ,                        !- View Factor to Ground
    4,                       !- Number of Vertices
    -66.05778,288.663888,8.2296,  !- X,Y,Z ==> Vertex 1 {m}
    -66.05778,286.798512,8.2296,  !- X,Y,Z ==> Vertex 2 {m}
    120.5865,286.798512,8.2296,  !- X,Y,Z ==> Vertex 3 {m}
    120.5865,288.663888,8.2296;  !- X,Y,Z ==> Vertex 4 {m}

  BuildingSurface:Detailed,
    E9 Roof (T.N7.E20),      !- Name
    Roof,                    !- Surface Type
    Exterior Roof,           !- Construction Name
    Dorm E9 North Perim (T.N7),  !- Zone Name
    ,                        !- Space Name
    Outdoors,                !- Outside Boundary Condition
    ,                        !- Outside Boundary Condition Object
    SunExposed,              !- Sun Exposure
    WindExposed,             !- Wind Exposure
    ,                        !- View Factor to Ground
    4,                       !- Number of Vertices
    -66.05778,293.94912,8.2296,  !- X,Y,Z ==> Vertex 1 {m}
    -66.05778,288.663888,8.2296,  !- X,Y,Z ==> Vertex 2 {m}
    120.5865,288.663888,8.2296,  !- X,Y,Z ==> Vertex 3 {m}
    120.5865,293.94912,8.2296;  !- X,Y,Z ==> Vertex 4 {m}

  BuildingSurface:Detailed,
    E9 Roof (T.S8.E24),      !- Name
    Roof,                    !- Surface Type
    Exterior Roof,           !- Construction Name
    Dorm E9 South Perim (T.S8),  !- Zone Name
    ,                        !- Space Name
    Outdoors,                !- Outside Boundary Condition
    ,                        !- Outside Boundary Condition Object
    SunExposed,              !- Sun Exposure
    WindExposed,             !- Wind Exposure
    ,                        !- View Factor to Ground
    4,                       !- Number of Vertices
    -66.05778,286.798512,8.2296,  !- X,Y,Z ==> Vertex 1 {m}
    -66.05778,281.51328,8.2296,  !- X,Y,Z ==> Vertex 2 {m}
    120.5865,281.51328,8.2296,  !- X,Y,Z ==> Vertex 3 {m}
    120.5865,286.798512,8.2296;  !- X,Y,Z ==> Vertex 4 {m}

  BuildingSurface:Detailed,
    E9 South Wall (G.N1.I2)-mirror,  !- Name
    Wall,                    !- Surface Type
    Interior Wall,           !- Construction Name
    Corridor E9 Core (G.C3), !- Zone Name
    ,                        !- Space Name
    Surface,                 !- Outside Boundary Condition
    E9 South Wall (G.N1.I2)-mirror Reversed,  !- Outside Boundary Condition Object
    NoSun,                   !- Sun Exposure
    NoWind,                  !- Wind Exposure
    ,                        !- View Factor to Ground
    4,                       !- Number of Vertices
    120.5865,288.663888,2.7432,  !- X,Y,Z ==> Vertex 1 {m}
    120.5865,288.663888,0,  !- X,Y,Z ==> Vertex 2 {m}
    -66.05778,288.663888,0,  !- X,Y,Z ==> Vertex 3 {m}
    -66.05778,288.663888,2.7432;  !- X,Y,Z ==> Vertex 4 {m}

  BuildingSurface:Detailed,
    E9 South Wall (G.N1.I2)-mirror Reversed,  !- Name
    Wall,                    !- Surface Type
    Interior Wall,           !- Construction Name
    Dorm E9 North Perim (G.N1),  !- Zone Name
    ,                        !- Space Name
    Surface,                 !- Outside Boundary Condition
    E9 South Wall (G.N1.I2)-mirror,  !- Outside Boundary Condition Object
    NoSun,                   !- Sun Exposure
    NoWind,                  !- Wind Exposure
    ,                        !- View Factor to Ground
    4,                       !- Number of Vertices
    -66.05778,288.663888,2.7432,  !- X,Y,Z ==> Vertex 1 {m}
    -66.05778,288.663888,0,  !- X,Y,Z ==> Vertex 2 {m}
    120.5865,288.663888,0,  !- X,Y,Z ==> Vertex 3 {m}
    120.5865,288.663888,2.7432;  !- X,Y,Z ==> Vertex 4 {m}

  BuildingSurface:Detailed,
    E9 South Wall (G.S2.E4), !- Name
    Wall,                    !- Surface Type
    Exterior Wall,           !- Construction Name
    Dorm E9 South Perim (G.S2),  !- Zone Name
    ,                        !- Space Name
    Outdoors,                !- Outside Boundary Condition
    ,                        !- Outside Boundary Condition Object
    SunExposed,              !- Sun Exposure
    WindExposed,             !- Wind Exposure
    ,                        !- View Factor to Ground
    4,                       !- Number of Vertices
    -66.05778,281.51328,2.7432,  !- X,Y,Z ==> Vertex 1 {m}
    -66.05778,281.51328,0,  !- X,Y,Z ==> Vertex 2 {m}
    120.5865,281.51328,0,  !- X,Y,Z ==> Vertex 3 {m}
    120.5865,281.51328,2.7432;  !- X,Y,Z ==> Vertex 4 {m}

  BuildingSurface:Detailed,
    E9 South Wall (M.N4.I7)-mirror,  !- Name
    Wall,                    !- Surface Type
    Interior Wall,           !- Construction Name
    Corridor E9 Core (M.C6), !- Zone Name
    ,                        !- Space Name
    Surface,                 !- Outside Boundary Condition
    E9 South Wall (M.N4.I7)-mirror Reversed,  !- Outside Boundary Condition Object
    NoSun,                   !- Sun Exposure
    NoWind,                  !- Wind Exposure
    ,                        !- View Factor to Ground
    4,                       !- Number of Vertices
    120.5865,288.663888,5.4864,  !- X,Y,Z ==> Vertex 1 {m}
    120.5865,288.663888,2.7432,  !- X,Y,Z ==> Vertex 2 {m}
    -66.05778,288.663888,2.7432,  !- X,Y,Z ==> Vertex 3 {m}
    -66.05778,288.663888,5.4864;  !- X,Y,Z ==> Vertex 4 {m}

  BuildingSurface:Detailed,
    E9 South Wall (M.N4.I7)-mirror Reversed,  !- Name
    Wall,                    !- Surface Type
    Interior Wall,           !- Construction Name
    Dorm E9 North Perim (M.N4),  !- Zone Name
    ,                        !- Space Name
    Surface,                 !- Outside Boundary Condition
    E9 South Wall (M.N4.I7)-mirror,  !- Outside Boundary Condition Object
    NoSun,                   !- Sun Exposure
    NoWind,                  !- Wind Exposure
    ,                        !- View Factor to Ground
    4,                       !- Number of Vertices
    -66.05778,288.663888,5.4864,  !- X,Y,Z ==> Vertex 1 {m}
    -66.05778,288.663888,2.7432,  !- X,Y,Z ==> Vertex 2 {m}
    120.5865,288.663888,2.7432,  !- X,Y,Z ==> Vertex 3 {m}
    120.5865,288.663888,5.4864;  !- X,Y,Z ==> Vertex 4 {m}

  BuildingSurface:Detailed,
    E9 South Wall (M.S5.E12),!- Name
    Wall,                    !- Surface Type
    Exterior Wall,           !- Construction Name
    Dorm E9 South Perim (M.S5),  !- Zone Name
    ,                        !- Space Name
    Outdoors,                !- Outside Boundary Condition
    ,                        !- Outside Boundary Condition Object
    SunExposed,              !- Sun Exposure
    WindExposed,             !- Wind Exposure
    ,                        !- View Factor to Ground
    4,                       !- Number of Vertices
    -66.05778,281.51328,5.4864,  !- X,Y,Z ==> Vertex 1 {m}
    -66.05778,281.51328,2.7432,  !- X,Y,Z ==> Vertex 2 {m}
    120.5865,281.51328,2.7432,  !- X,Y,Z ==> Vertex 3 {m}
    120.5865,281.51328,5.4864;  !- X,Y,Z ==> Vertex 4 {m}

  BuildingSurface:Detailed,
    E9 South Wall (T.N7.I12)-mirror,  !- Name
    Wall,                    !- Surface Type
    Interior Wall,           !- Construction Name
    Corridor E9 Core (T.C9), !- Zone Name
    ,                        !- Space Name
    Surface,                 !- Outside Boundary Condition
    E9 South Wall (T.N7.I12)-mirror Reversed,  !- Outside Boundary Condition Object
    NoSun,                   !- Sun Exposure
    NoWind,                  !- Wind Exposure
    ,                        !- View Factor to Ground
    4,                       !- Number of Vertices
    120.5865,288.663888,8.2296,  !- X,Y,Z ==> Vertex 1 {m}
    120.5865,288.663888,5.4864,  !- X,Y,Z ==> Vertex 2 {m}
    -66.05778,288.663888,5.4864,  !- X,Y,Z ==> Vertex 3 {m}
    -66.05778,288.663888,8.2296;  !- X,Y,Z ==> Vertex 4 {m}

  BuildingSurface:Detailed,
    E9 South Wall (T.N7.I12)-mirror Reversed,  !- Name
    Wall,                    !- Surface Type
    Interior Wall,           !- Construction Name
    Dorm E9 North Perim (T.N7),  !- Zone Name
    ,                        !- Space Name
    Surface,                 !- Outside Boundary Condition
    E9 South Wall (T.N7.I12)-mirror,  !- Outside Boundary Condition Object
    NoSun,                   !- Sun Exposure
    NoWind,                  !- Wind Exposure
    ,                        !- View Factor to Ground
    4,                       !- Number of Vertices
    -66.05778,288.663888,8.2296,  !- X,Y,Z ==> Vertex 1 {m}
    -66.05778,288.663888,5.4864,  !- X,Y,Z ==> Vertex 2 {m}
    120.5865,288.663888,5.4864,  !- X,Y,Z ==> Vertex 3 {m}
    120.5865,288.663888,8.2296;  !- X,Y,Z ==> Vertex 4 {m}

  BuildingSurface:Detailed,
    E9 South Wall (T.S8.E21),!- Name
    Wall,                    !- Surface Type
    Exterior Wall,           !- Construction Name
    Dorm E9 South Perim (T.S8),  !- Zone Name
    ,                        !- Space Name
    Outdoors,                !- Outside Boundary Condition
    ,                        !- Outside Boundary Condition Object
    SunExposed,              !- Sun Exposure
    WindExposed,             !- Wind Exposure
    ,                        !- View Factor to Ground
    4,                       !- Number of Vertices
    -66.05778,281.51328,8.2296,  !- X,Y,Z ==> Vertex 1 {m}
    -66.05778,281.51328,5.4864,  !- X,Y,Z ==> Vertex 2 {m}
    120.5865,281.51328,5.4864,  !- X,Y,Z ==> Vertex 3 {m}
    120.5865,281.51328,8.2296;  !- X,Y,Z ==> Vertex 4 {m}

  BuildingSurface:Detailed,
    E9 West Wall (G.C3.E8),  !- Name
    Wall,                    !- Surface Type
    Exterior Wall,           !- Construction Name
    Corridor E9 Core (G.C3), !- Zone Name
    ,                        !- Space Name
    Outdoors,                !- Outside Boundary Condition
    ,                        !- Outside Boundary Condition Object
    SunExposed,              !- Sun Exposure
    WindExposed,             !- Wind Exposure
    ,                        !- View Factor to Ground
    4,                       !- Number of Vertices
    -66.05778,288.663888,2.7432,  !- X,Y,Z ==> Vertex 1 {m}
    -66.05778,288.663888,0,  !- X,Y,Z ==> Vertex 2 {m}
    -66.05778,286.798512,0,  !- X,Y,Z ==> Vertex 3 {m}
    -66.05778,286.798512,2.7432;  !- X,Y,Z ==> Vertex 4 {m}

  BuildingSurface:Detailed,
    E9 West Wall (G.N1.E2),  !- Name
    Wall,                    !- Surface Type
    Exterior Wall,           !- Construction Name
    Dorm E9 North Perim (G.N1),  !- Zone Name
    ,                        !- Space Name
    Outdoors,                !- Outside Boundary Condition
    ,                        !- Outside Boundary Condition Object
    SunExposed,              !- Sun Exposure
    WindExposed,             !- Wind Exposure
    ,                        !- View Factor to Ground
    4,                       !- Number of Vertices
    -66.05778,293.94912,2.7432,  !- X,Y,Z ==> Vertex 1 {m}
    -66.05778,293.94912,0,  !- X,Y,Z ==> Vertex 2 {m}
    -66.05778,288.663888,0,  !- X,Y,Z ==> Vertex 3 {m}
    -66.05778,288.663888,2.7432;  !- X,Y,Z ==> Vertex 4 {m}

  BuildingSurface:Detailed,
    E9 West Wall (G.S2.E6),  !- Name
    Wall,                    !- Surface Type
    Exterior Wall,           !- Construction Name
    Dorm E9 South Perim (G.S2),  !- Zone Name
    ,                        !- Space Name
    Outdoors,                !- Outside Boundary Condition
    ,                        !- Outside Boundary Condition Object
    SunExposed,              !- Sun Exposure
    WindExposed,             !- Wind Exposure
    ,                        !- View Factor to Ground
    4,                       !- Number of Vertices
    -66.05778,286.798512,2.7432,  !- X,Y,Z ==> Vertex 1 {m}
    -66.05778,286.798512,0,  !- X,Y,Z ==> Vertex 2 {m}
    -66.05778,281.51328,0,  !- X,Y,Z ==> Vertex 3 {m}
    -66.05778,281.51328,2.7432;  !- X,Y,Z ==> Vertex 4 {m}

  BuildingSurface:Detailed,
    E9 West Wall (M.C6.E16), !- Name
    Wall,                    !- Surface Type
    Exterior Wall,           !- Construction Name
    Corridor E9 Core (M.C6), !- Zone Name
    ,                        !- Space Name
    Outdoors,                !- Outside Boundary Condition
    ,                        !- Outside Boundary Condition Object
    SunExposed,              !- Sun Exposure
    WindExposed,             !- Wind Exposure
    ,                        !- View Factor to Ground
    4,                       !- Number of Vertices
    -66.05778,288.663888,5.4864,  !- X,Y,Z ==> Vertex 1 {m}
    -66.05778,288.663888,2.7432,  !- X,Y,Z ==> Vertex 2 {m}
    -66.05778,286.798512,2.7432,  !- X,Y,Z ==> Vertex 3 {m}
    -66.05778,286.798512,5.4864;  !- X,Y,Z ==> Vertex 4 {m}

  BuildingSurface:Detailed,
    E9 West Wall (M.N4.E10), !- Name
    Wall,                    !- Surface Type
    Exterior Wall,           !- Construction Name
    Dorm E9 North Perim (M.N4),  !- Zone Name
    ,                        !- Space Name
    Outdoors,                !- Outside Boundary Condition
    ,                        !- Outside Boundary Condition Object
    SunExposed,              !- Sun Exposure
    WindExposed,             !- Wind Exposure
    ,                        !- View Factor to Ground
    4,                       !- Number of Vertices
    -66.05778,293.94912,5.4864,  !- X,Y,Z ==> Vertex 1 {m}
    -66.05778,293.94912,2.7432,  !- X,Y,Z ==> Vertex 2 {m}
    -66.05778,288.663888,2.7432,  !- X,Y,Z ==> Vertex 3 {m}
    -66.05778,288.663888,5.4864;  !- X,Y,Z ==> Vertex 4 {m}

  BuildingSurface:Detailed,
    E9 West Wall (M.S5.E14), !- Name
    Wall,                    !- Surface Type
    Exterior Wall,           !- Construction Name
    Dorm E9 South Perim (M.S5),  !- Zone Name
    ,                        !- Space Name
    Outdoors,                !- Outside Boundary Condition
    ,                        !- Outside Boundary Condition Object
    SunExposed,              !- Sun Exposure
    WindExposed,             !- Wind Exposure
    ,                        !- View Factor to Ground
    4,                       !- Number of Vertices
    -66.05778,286.798512,5.4864,  !- X,Y,Z ==> Vertex 1 {m}
    -66.05778,286.798512,2.7432,  !- X,Y,Z ==> Vertex 2 {m}
    -66.05778,281.51328,2.7432,  !- X,Y,Z ==> Vertex 3 {m}
    -66.05778,281.51328,5.4864;  !- X,Y,Z ==> Vertex 4 {m}

  BuildingSurface:Detailed,
    E9 West Wall (T.C9.E26), !- Name
    Wall,                    !- Surface Type
    Exterior Wall,           !- Construction Name
    Corridor E9 Core (T.C9), !- Zone Name
    ,                        !- Space Name
    Outdoors,                !- Outside Boundary Condition
    ,                        !- Outside Boundary Condition Object
    SunExposed,              !- Sun Exposure
    WindExposed,             !- Wind Exposure
    ,                        !- View Factor to Ground
    4,                       !- Number of Vertices
    -66.05778,288.663888,8.2296,  !- X,Y,Z ==> Vertex 1 {m}
    -66.05778,288.663888,5.4864,  !- X,Y,Z ==> Vertex 2 {m}
    -66.05778,286.798512,5.4864,  !- X,Y,Z ==> Vertex 3 {m}
    -66.05778,286.798512,8.2296;  !- X,Y,Z ==> Vertex 4 {m}

  BuildingSurface:Detailed,
    E9 West Wall (T.N7.E18), !- Name
    Wall,                    !- Surface Type
    Exterior Wall,           !- Construction Name
    Dorm E9 North Perim (T.N7),  !- Zone Name
    ,                        !- Space Name
    Outdoors,                !- Outside Boundary Condition
    ,                        !- Outside Boundary Condition Object
    SunExposed,              !- Sun Exposure
    WindExposed,             !- Wind Exposure
    ,                        !- View Factor to Ground
    4,                       !- Number of Vertices
    -66.05778,293.94912,8.2296,  !- X,Y,Z ==> Vertex 1 {m}
    -66.05778,293.94912,5.4864,  !- X,Y,Z ==> Vertex 2 {m}
    -66.05778,288.663888,5.4864,  !- X,Y,Z ==> Vertex 3 {m}
    -66.05778,288.663888,8.2296;  !- X,Y,Z ==> Vertex 4 {m}

  BuildingSurface:Detailed,
    E9 West Wall (T.S8.E23), !- Name
    Wall,                    !- Surface Type
    Exterior Wall,           !- Construction Name
    Dorm E9 South Perim (T.S8),  !- Zone Name
    ,                        !- Space Name
    Outdoors,                !- Outside Boundary Condition
    ,                        !- Outside Boundary Condition Object
    SunExposed,              !- Sun Exposure
    WindExposed,             !- Wind Exposure
    ,                        !- View Factor to Ground
    4,                       !- Number of Vertices
    -66.05778,286.798512,8.2296,  !- X,Y,Z ==> Vertex 1 {m}
    -66.05778,286.798512,5.4864,  !- X,Y,Z ==> Vertex 2 {m}
    -66.05778,281.51328,5.4864,  !- X,Y,Z ==> Vertex 3 {m}
    -66.05778,281.51328,8.2296;  !- X,Y,Z ==> Vertex 4 {m}

  FenestrationSurface:Detailed,
    E1 North Win (G.W1.E2.W1),  !- Name
    Window,                  !- Surface Type
    Exterior Window,         !- Construction Name
    E1 North Wall (G.W1.E2), !- Building Surface Name
    ,                        !- Outside Boundary Condition Object
    ,                        !- View Factor to Ground
    ,                        !- Frame and Divider Name
    ,                        !- Multiplier
    4,                       !- Number of Vertices
    33.6261456,68.15328,2.7432,  !- X,Y,Z ==> Vertex 1 {m}
    33.6261456,68.15328,0.9144,  !- X,Y,Z ==> Vertex 2 {m}
    20.90269632,68.15328,0.9144,  !- X,Y,Z ==> Vertex 3 {m}
    20.90269632,68.15328,2.7432;  !- X,Y,Z ==> Vertex 4 {m}

  FenestrationSurface:Detailed,
    E1 South Win (G.W1.E1.W1),  !- Name
    Window,                  !- Surface Type
    Exterior Window,         !- Construction Name
    E1 South Wall (G.W1.E1), !- Building Surface Name
    ,                        !- Outside Boundary Condition Object
    ,                        !- View Factor to Ground
    ,                        !- Frame and Divider Name
    ,                        !- Multiplier
    4,                       !- Number of Vertices
    20.90266584,0,2.7432,  !- X,Y,Z ==> Vertex 1 {m}
    20.90266584,0,0.9144,  !- X,Y,Z ==> Vertex 2 {m}
    33.6261456,0,0.9144,  !- X,Y,Z ==> Vertex 3 {m}
    33.6261456,0,2.7432;  !- X,Y,Z ==> Vertex 4 {m}

  FenestrationSurface:Detailed,
    E1 West Win (G.W1.E3.W1),!- Name
    Window,                  !- Surface Type
    Exterior Window,         !- Construction Name
    E1 West Wall (G.W1.E3),  !- Building Surface Name
    ,                        !- Outside Boundary Condition Object
    ,                        !- View Factor to Ground
    ,                        !- Frame and Divider Name
    ,                        !- Multiplier
    4,                       !- Number of Vertices
    0,42.0279576,2.7432,  !- X,Y,Z ==> Vertex 1 {m}
    0,42.0279576,0.9144,  !- X,Y,Z ==> Vertex 2 {m}
    0,26.12544432,0.9144,  !- X,Y,Z ==> Vertex 3 {m}
    0,26.12544432,2.7432;  !- X,Y,Z ==> Vertex 4 {m}

  FenestrationSurface:Detailed,
    E2 North Win (G.N3.E2.W1),  !- Name
    Window,                  !- Surface Type
    Exterior Window,         !- Construction Name
    E2 North Wall (G.N3.E2), !- Building Surface Name
    ,                        !- Outside Boundary Condition Object
    ,                        !- View Factor to Ground
    ,                        !- Frame and Divider Name
    ,                        !- Multiplier
    4,                       !- Number of Vertices
    111.0258384,68.15328,2.7432,  !- X,Y,Z ==> Vertex 1 {m}
    111.0258384,68.15328,0.9144,  !- X,Y,Z ==> Vertex 2 {m}
    56.4766968,68.15328,0.9144,  !- X,Y,Z ==> Vertex 3 {m}
    56.4766968,68.15328,2.7432;  !- X,Y,Z ==> Vertex 4 {m}

  FenestrationSurface:Detailed,
    E2 South Win (G.S2.E1.W1),  !- Name
    Window,                  !- Surface Type
    Exterior Window,         !- Construction Name
    E2 South Wall (G.S2.E1), !- Building Surface Name
    ,                        !- Outside Boundary Condition Object
    ,                        !- View Factor to Ground
    ,                        !- Frame and Divider Name
    ,                        !- Multiplier
    4,                       !- Number of Vertices
    56.4770016,0,2.7432,  !- X,Y,Z ==> Vertex 1 {m}
    56.4770016,0,0.9144,  !- X,Y,Z ==> Vertex 2 {m}
    111.0261432,0,0.9144,  !- X,Y,Z ==> Vertex 3 {m}
    111.0261432,0,2.7432;  !- X,Y,Z ==> Vertex 4 {m}

  FenestrationSurface:Detailed,
    E3 East Win (G.N2.E4.W1),!- Name
    Window,                  !- Surface Type
    Exterior Window,         !- Construction Name
    E3 East Wall (G.N2.E4),  !- Building Surface Name
    ,                        !- Outside Boundary Condition Object
    ,                        !- View Factor to Ground
    ,                        !- Frame and Divider Name
    ,                        !- Multiplier
    4,                       !- Number of Vertices
    136.30656,50.4242832,2.7432,  !- X,Y,Z ==> Vertex 1 {m}
    136.30656,50.4242832,0.9144,  !- X,Y,Z ==> Vertex 2 {m}
    136.30656,64.8239496,0.9144,  !- X,Y,Z ==> Vertex 3 {m}
    136.30656,64.8239496,2.7432;  !- X,Y,Z ==> Vertex 4 {m}

  FenestrationSurface:Detailed,
    E3 East Win (G.S1.E2.W1),!- Name
    Window,                  !- Surface Type
    Exterior Window,         !- Construction Name
    E3 East Wall (G.S1.E2),  !- Building Surface Name
    ,                        !- Outside Boundary Condition Object
    ,                        !- View Factor to Ground
    ,                        !- Frame and Divider Name
    ,                        !- Multiplier
    4,                       !- Number of Vertices
    136.30656,7.30800672,2.7432,  !- X,Y,Z ==> Vertex 1 {m}
    136.30656,7.30800672,0.9144,  !- X,Y,Z ==> Vertex 2 {m}
    136.30656,40.2744432,0.9144,  !- X,Y,Z ==> Vertex 3 {m}
    136.30656,40.2744432,2.7432;  !- X,Y,Z ==> Vertex 4 {m}

  FenestrationSurface:Detailed,
    E3 North Win (G.N2.E3.W1),  !- Name
    Window,                  !- Surface Type
    Exterior Window,         !- Construction Name
    E3 North Wall (G.N2.E3), !- Building Surface Name
    ,                        !- Outside Boundary Condition Object
    ,                        !- View Factor to Ground
    ,                        !- Frame and Divider Name
    ,                        !- Multiplier
    4,                       !- Number of Vertices
    133.104636,68.15328,2.7432,  !- X,Y,Z ==> Vertex 1 {m}
    133.104636,68.15328,0.9144,  !- X,Y,Z ==> Vertex 2 {m}
    116.526564,68.15328,0.9144,  !- X,Y,Z ==> Vertex 3 {m}
    116.526564,68.15328,2.7432;  !- X,Y,Z ==> Vertex 4 {m}

  FenestrationSurface:Detailed,
    E3 South Win (G.S1.E1.W1),  !- Name
    Window,                  !- Surface Type
    Exterior Window,         !- Construction Name
    E3 South Wall (G.S1.E1), !- Building Surface Name
    ,                        !- Outside Boundary Condition Object
    ,                        !- View Factor to Ground
    ,                        !- Frame and Divider Name
    ,                        !- Multiplier
    4,                       !- Number of Vertices
    116.526564,0,2.7432,  !- X,Y,Z ==> Vertex 1 {m}
    116.526564,0,0.9144,  !- X,Y,Z ==> Vertex 2 {m}
    133.104636,0,0.9144,  !- X,Y,Z ==> Vertex 3 {m}
    133.104636,0,2.7432;  !- X,Y,Z ==> Vertex 4 {m}

  FenestrationSurface:Detailed,
    E4 East Win (G.E2.E2.W1),!- Name
    Window,                  !- Surface Type
    Exterior Window,         !- Construction Name
    E4 East Wall (G.E2.E2),  !- Building Surface Name
    ,                        !- Outside Boundary Condition Object
    ,                        !- View Factor to Ground
    ,                        !- Frame and Divider Name
    ,                        !- Multiplier
    4,                       !- Number of Vertices
    136.30656,2.271774984,7.0104,  !- X,Y,Z ==> Vertex 1 {m}
    136.30656,2.271774984,5.1816,  !- X,Y,Z ==> Vertex 2 {m}
    136.30656,65.8813008,5.1816,  !- X,Y,Z ==> Vertex 3 {m}
    136.30656,65.8813008,7.0104;  !- X,Y,Z ==> Vertex 4 {m}

  FenestrationSurface:Detailed,
    E4 East Win (M.E14.E10.W1),  !- Name
    Window,                  !- Surface Type
    Exterior Window,         !- Construction Name
    E4 East Wall (M.E14.E10),!- Building Surface Name
    ,                        !- Outside Boundary Condition Object
    ,                        !- View Factor to Ground
    ,                        !- Frame and Divider Name
    ,                        !- Multiplier
    4,                       !- Number of Vertices
    136.30656,2.271774984,11.2776,  !- X,Y,Z ==> Vertex 1 {m}
    136.30656,2.271774984,9.4488,  !- X,Y,Z ==> Vertex 2 {m}
    136.30656,65.8813008,9.4488,  !- X,Y,Z ==> Vertex 3 {m}
    136.30656,65.8813008,11.2776;  !- X,Y,Z ==> Vertex 4 {m}

  FenestrationSurface:Detailed,
    E4 East Win (T.E26.E18.W1),  !- Name
    Window,                  !- Surface Type
    Exterior Window,         !- Construction Name
    E4 East Wall (T.E26.E18),!- Building Surface Name
    ,                        !- Outside Boundary Condition Object
    ,                        !- View Factor to Ground
    ,                        !- Frame and Divider Name
    ,                        !- Multiplier
    4,                       !- Number of Vertices
    136.30656,2.271774984,15.5448,  !- X,Y,Z ==> Vertex 1 {m}
    136.30656,2.271774984,13.716,  !- X,Y,Z ==> Vertex 2 {m}
    136.30656,65.8813008,13.716,  !- X,Y,Z ==> Vertex 3 {m}
    136.30656,65.8813008,15.5448;  !- X,Y,Z ==> Vertex 4 {m}

  FenestrationSurface:Detailed,
    E4 North Win (G.N3.E3.W1),  !- Name
    Window,                  !- Surface Type
    Exterior Window,         !- Construction Name
    E4 North Wall (G.N3.E3), !- Building Surface Name
    ,                        !- Outside Boundary Condition Object
    ,                        !- View Factor to Ground
    ,                        !- Frame and Divider Name
    ,                        !- Multiplier
    4,                       !- Number of Vertices
    131.7629064,68.15328,7.0104,  !- X,Y,Z ==> Vertex 1 {m}
    131.7629064,68.15328,5.1816,  !- X,Y,Z ==> Vertex 2 {m}
    4.54344024,68.15328,5.1816,  !- X,Y,Z ==> Vertex 3 {m}
    4.54344024,68.15328,7.0104;  !- X,Y,Z ==> Vertex 4 {m}

  FenestrationSurface:Detailed,
    E4 North Win (M.N15.E11.W1),  !- Name
    Window,                  !- Surface Type
    Exterior Window,         !- Construction Name
    E4 North Wall (M.N15.E11),  !- Building Surface Name
    ,                        !- Outside Boundary Condition Object
    ,                        !- View Factor to Ground
    ,                        !- Frame and Divider Name
    ,                        !- Multiplier
    4,                       !- Number of Vertices
    131.7629064,68.15328,11.2776,  !- X,Y,Z ==> Vertex 1 {m}
    131.7629064,68.15328,9.4488,  !- X,Y,Z ==> Vertex 2 {m}
    4.54344024,68.15328,9.4488,  !- X,Y,Z ==> Vertex 3 {m}
    4.54344024,68.15328,11.2776;  !- X,Y,Z ==> Vertex 4 {m}

  FenestrationSurface:Detailed,
    E4 North Win (T.N27.E19.W1),  !- Name
    Window,                  !- Surface Type
    Exterior Window,         !- Construction Name
    E4 North Wall (T.N27.E19),  !- Building Surface Name
    ,                        !- Outside Boundary Condition Object
    ,                        !- View Factor to Ground
    ,                        !- Frame and Divider Name
    ,                        !- Multiplier
    4,                       !- Number of Vertices
    131.7629064,68.15328,15.5448,  !- X,Y,Z ==> Vertex 1 {m}
    131.7629064,68.15328,13.716,  !- X,Y,Z ==> Vertex 2 {m}
    4.54344024,68.15328,13.716,  !- X,Y,Z ==> Vertex 3 {m}
    4.54344024,68.15328,15.5448;  !- X,Y,Z ==> Vertex 4 {m}

  FenestrationSurface:Detailed,
    E4 South Win (G.S1.E1.W1),  !- Name
    Window,                  !- Surface Type
    Exterior Window,         !- Construction Name
    E4 South Wall (G.S1.E1), !- Building Surface Name
    ,                        !- Outside Boundary Condition Object
    ,                        !- View Factor to Ground
    ,                        !- Frame and Divider Name
    ,                        !- Multiplier
    4,                       !- Number of Vertices
    4.54356216,0,7.0104,  !- X,Y,Z ==> Vertex 1 {m}
    4.54356216,0,5.1816,  !- X,Y,Z ==> Vertex 2 {m}
    131.7632112,0,5.1816,  !- X,Y,Z ==> Vertex 3 {m}
    131.7632112,0,7.0104;  !- X,Y,Z ==> Vertex 4 {m}

  FenestrationSurface:Detailed,
    E4 South Win (M.S13.E9.W1),  !- Name
    Window,                  !- Surface Type
    Exterior Window,         !- Construction Name
    E4 South Wall (M.S13.E9),!- Building Surface Name
    ,                        !- Outside Boundary Condition Object
    ,                        !- View Factor to Ground
    ,                        !- Frame and Divider Name
    ,                        !- Multiplier
    4,                       !- Number of Vertices
    4.54356216,0,11.2776,  !- X,Y,Z ==> Vertex 1 {m}
    4.54356216,0,9.4488,  !- X,Y,Z ==> Vertex 2 {m}
    131.7632112,0,9.4488,  !- X,Y,Z ==> Vertex 3 {m}
    131.7632112,0,11.2776;  !- X,Y,Z ==> Vertex 4 {m}

  FenestrationSurface:Detailed,
    E4 South Win (T.S25.E17.W1),  !- Name
    Window,                  !- Surface Type
    Exterior Window,         !- Construction Name
    E4 South Wall (T.S25.E17),  !- Building Surface Name
    ,                        !- Outside Boundary Condition Object
    ,                        !- View Factor to Ground
    ,                        !- Frame and Divider Name
    ,                        !- Multiplier
    4,                       !- Number of Vertices
    4.54356216,0,15.5448,  !- X,Y,Z ==> Vertex 1 {m}
    4.54356216,0,13.716,  !- X,Y,Z ==> Vertex 2 {m}
    131.7632112,0,13.716,  !- X,Y,Z ==> Vertex 3 {m}
    131.7632112,0,15.5448;  !- X,Y,Z ==> Vertex 4 {m}

  FenestrationSurface:Detailed,
    E4 West Win (G.W4.E4.W1),!- Name
    Window,                  !- Surface Type
    Exterior Window,         !- Construction Name
    E4 West Wall (G.W4.E4),  !- Building Surface Name
    ,                        !- Outside Boundary Condition Object
    ,                        !- View Factor to Ground
    ,                        !- Frame and Divider Name
    ,                        !- Multiplier
    4,                       !- Number of Vertices
    0,65.8816056,7.0104,  !- X,Y,Z ==> Vertex 1 {m}
    0,65.8816056,5.1816,  !- X,Y,Z ==> Vertex 2 {m}
    0,2.271878616,5.1816,  !- X,Y,Z ==> Vertex 3 {m}
    0,2.271878616,7.0104;  !- X,Y,Z ==> Vertex 4 {m}

  FenestrationSurface:Detailed,
    E4 West Win (M.W16.E12.W1),  !- Name
    Window,                  !- Surface Type
    Exterior Window,         !- Construction Name
    E4 West Wall (M.W16.E12),!- Building Surface Name
    ,                        !- Outside Boundary Condition Object
    ,                        !- View Factor to Ground
    ,                        !- Frame and Divider Name
    ,                        !- Multiplier
    4,                       !- Number of Vertices
    0,65.8816056,11.2776,  !- X,Y,Z ==> Vertex 1 {m}
    0,65.8816056,9.4488,  !- X,Y,Z ==> Vertex 2 {m}
    0,2.271878616,9.4488,  !- X,Y,Z ==> Vertex 3 {m}
    0,2.271878616,11.2776;  !- X,Y,Z ==> Vertex 4 {m}

  FenestrationSurface:Detailed,
    E4 West Win (T.W28.E20.W1),  !- Name
    Window,                  !- Surface Type
    Exterior Window,         !- Construction Name
    E4 West Wall (T.W28.E20),!- Building Surface Name
    ,                        !- Outside Boundary Condition Object
    ,                        !- View Factor to Ground
    ,                        !- Frame and Divider Name
    ,                        !- Multiplier
    4,                       !- Number of Vertices
    0,65.8816056,15.5448,  !- X,Y,Z ==> Vertex 1 {m}
    0,65.8816056,13.716,  !- X,Y,Z ==> Vertex 2 {m}
    0,2.271878616,13.716,  !- X,Y,Z ==> Vertex 3 {m}
    0,2.271878616,15.5448;  !- X,Y,Z ==> Vertex 4 {m}

  FenestrationSurface:Detailed,
    E9 East Win (G.C3.E7.W1),!- Name
    Window,                  !- Surface Type
    Exterior Window,         !- Construction Name
    E9 East Wall (G.C3.E7),  !- Building Surface Name
    ,                        !- Outside Boundary Condition Object
    ,                        !- View Factor to Ground
    ,                        !- Frame and Divider Name
    ,                        !- Multiplier
    4,                       !- Number of Vertices
    120.5865,287.3114904,2.1336,  !- X,Y,Z ==> Vertex 1 {m}
    120.5865,287.3114904,0.9144,  !- X,Y,Z ==> Vertex 2 {m}
    120.5865,288.1509096,0.9144,  !- X,Y,Z ==> Vertex 3 {m}
    120.5865,288.1509096,2.1336;  !- X,Y,Z ==> Vertex 4 {m}

  FenestrationSurface:Detailed,
    E9 East Win (G.N1.E3.W1),!- Name
    Window,                  !- Surface Type
    Exterior Window,         !- Construction Name
    E9 East Wall (G.N1.E3),  !- Building Surface Name
    ,                        !- Outside Boundary Condition Object
    ,                        !- View Factor to Ground
    ,                        !- Frame and Divider Name
    ,                        !- Multiplier
    4,                       !- Number of Vertices
    120.5865,290.1174792,2.1336,  !- X,Y,Z ==> Vertex 1 {m}
    120.5865,290.1174792,0.9144,  !- X,Y,Z ==> Vertex 2 {m}
    120.5865,292.4958336,0.9144,  !- X,Y,Z ==> Vertex 3 {m}
    120.5865,292.4958336,2.1336;  !- X,Y,Z ==> Vertex 4 {m}

  FenestrationSurface:Detailed,
    E9 East Win (G.S2.E5.W1),!- Name
    Window,                  !- Surface Type
    Exterior Window,         !- Construction Name
    E9 East Wall (G.S2.E5),  !- Building Surface Name
    ,                        !- Outside Boundary Condition Object
    ,                        !- View Factor to Ground
    ,                        !- Frame and Divider Name
    ,                        !- Multiplier
    4,                       !- Number of Vertices
    120.5865,282.9668712,2.1336,  !- X,Y,Z ==> Vertex 1 {m}
    120.5865,282.9668712,0.9144,  !- X,Y,Z ==> Vertex 2 {m}
    120.5865,285.3452256,0.9144,  !- X,Y,Z ==> Vertex 3 {m}
    120.5865,285.3452256,2.1336;  !- X,Y,Z ==> Vertex 4 {m}

  FenestrationSurface:Detailed,
    E9 East Win (M.C6.E15.W1),  !- Name
    Window,                  !- Surface Type
    Exterior Window,         !- Construction Name
    E9 East Wall (M.C6.E15), !- Building Surface Name
    ,                        !- Outside Boundary Condition Object
    ,                        !- View Factor to Ground
    ,                        !- Frame and Divider Name
    ,                        !- Multiplier
    4,                       !- Number of Vertices
    120.5865,287.3114904,4.8768,  !- X,Y,Z ==> Vertex 1 {m}
    120.5865,287.3114904,3.6576,  !- X,Y,Z ==> Vertex 2 {m}
    120.5865,288.1509096,3.6576,  !- X,Y,Z ==> Vertex 3 {m}
    120.5865,288.1509096,4.8768;  !- X,Y,Z ==> Vertex 4 {m}

  FenestrationSurface:Detailed,
    E9 East Win (M.N4.E11.W1),  !- Name
    Window,                  !- Surface Type
    Exterior Window,         !- Construction Name
    E9 East Wall (M.N4.E11), !- Building Surface Name
    ,                        !- Outside Boundary Condition Object
    ,                        !- View Factor to Ground
    ,                        !- Frame and Divider Name
    ,                        !- Multiplier
    4,                       !- Number of Vertices
    120.5865,290.1174792,4.8768,  !- X,Y,Z ==> Vertex 1 {m}
    120.5865,290.1174792,3.6576,  !- X,Y,Z ==> Vertex 2 {m}
    120.5865,292.4958336,3.6576,  !- X,Y,Z ==> Vertex 3 {m}
    120.5865,292.4958336,4.8768;  !- X,Y,Z ==> Vertex 4 {m}

  FenestrationSurface:Detailed,
    E9 East Win (M.S5.E13.W1),  !- Name
    Window,                  !- Surface Type
    Exterior Window,         !- Construction Name
    E9 East Wall (M.S5.E13), !- Building Surface Name
    ,                        !- Outside Boundary Condition Object
    ,                        !- View Factor to Ground
    ,                        !- Frame and Divider Name
    ,                        !- Multiplier
    4,                       !- Number of Vertices
    120.5865,282.9668712,4.8768,  !- X,Y,Z ==> Vertex 1 {m}
    120.5865,282.9668712,3.6576,  !- X,Y,Z ==> Vertex 2 {m}
    120.5865,285.3452256,3.6576,  !- X,Y,Z ==> Vertex 3 {m}
    120.5865,285.3452256,4.8768;  !- X,Y,Z ==> Vertex 4 {m}

  FenestrationSurface:Detailed,
    E9 East Win (T.C9.E25.W1),  !- Name
    Window,                  !- Surface Type
    Exterior Window,         !- Construction Name
    E9 East Wall (T.C9.E25), !- Building Surface Name
    ,                        !- Outside Boundary Condition Object
    ,                        !- View Factor to Ground
    ,                        !- Frame and Divider Name
    ,                        !- Multiplier
    4,                       !- Number of Vertices
    120.5865,287.3114904,7.62,  !- X,Y,Z ==> Vertex 1 {m}
    120.5865,287.3114904,6.4008,  !- X,Y,Z ==> Vertex 2 {m}
    120.5865,288.1509096,6.4008,  !- X,Y,Z ==> Vertex 3 {m}
    120.5865,288.1509096,7.62;  !- X,Y,Z ==> Vertex 4 {m}

  FenestrationSurface:Detailed,
    E9 East Win (T.N7.E19.W1),  !- Name
    Window,                  !- Surface Type
    Exterior Window,         !- Construction Name
    E9 East Wall (T.N7.E19), !- Building Surface Name
    ,                        !- Outside Boundary Condition Object
    ,                        !- View Factor to Ground
    ,                        !- Frame and Divider Name
    ,                        !- Multiplier
    4,                       !- Number of Vertices
    120.5865,290.1174792,7.62,  !- X,Y,Z ==> Vertex 1 {m}
    120.5865,290.1174792,6.4008,  !- X,Y,Z ==> Vertex 2 {m}
    120.5865,292.4958336,6.4008,  !- X,Y,Z ==> Vertex 3 {m}
    120.5865,292.4958336,7.62;  !- X,Y,Z ==> Vertex 4 {m}

  FenestrationSurface:Detailed,
    E9 East Win (T.S8.E22.W1),  !- Name
    Window,                  !- Surface Type
    Exterior Window,         !- Construction Name
    E9 East Wall (T.S8.E22), !- Building Surface Name
    ,                        !- Outside Boundary Condition Object
    ,                        !- View Factor to Ground
    ,                        !- Frame and Divider Name
    ,                        !- Multiplier
    4,                       !- Number of Vertices
    120.5865,282.9668712,7.62,  !- X,Y,Z ==> Vertex 1 {m}
    120.5865,282.9668712,6.4008,  !- X,Y,Z ==> Vertex 2 {m}
    120.5865,285.3452256,6.4008,  !- X,Y,Z ==> Vertex 3 {m}
    120.5865,285.3452256,7.62;  !- X,Y,Z ==> Vertex 4 {m}

  FenestrationSurface:Detailed,
    E9 North Win (G.N1.E1.W1),  !- Name
    Window,                  !- Surface Type
    Exterior Window,         !- Construction Name
    E9 North Wall (G.N1.E1), !- Building Surface Name
    ,                        !- Outside Boundary Condition Object
    ,                        !- View Factor to Ground
    ,                        !- Frame and Divider Name
    ,                        !- Multiplier
    4,                       !- Number of Vertices
    69.2593992,293.94912,2.1336,  !- X,Y,Z ==> Vertex 1 {m}
    69.2593992,293.94912,0.9144,  !- X,Y,Z ==> Vertex 2 {m}
    -14.73040488,293.94912,0.9144,  !- X,Y,Z ==> Vertex 3 {m}
    -14.73040488,293.94912,2.1336;  !- X,Y,Z ==> Vertex 4 {m}

  FenestrationSurface:Detailed,
    E9 North Win (M.N4.E9.W1),  !- Name
    Window,                  !- Surface Type
    Exterior Window,         !- Construction Name
    E9 North Wall (M.N4.E9), !- Building Surface Name
    ,                        !- Outside Boundary Condition Object
    ,                        !- View Factor to Ground
    ,                        !- Frame and Divider Name
    ,                        !- Multiplier
    4,                       !- Number of Vertices
    69.2593992,293.94912,4.8768,  !- X,Y,Z ==> Vertex 1 {m}
    69.2593992,293.94912,3.6576,  !- X,Y,Z ==> Vertex 2 {m}
    -14.73040488,293.94912,3.6576,  !- X,Y,Z ==> Vertex 3 {m}
    -14.73040488,293.94912,4.8768;  !- X,Y,Z ==> Vertex 4 {m}

  FenestrationSurface:Detailed,
    E9 North Win (T.N7.E17.W1),  !- Name
    Window,                  !- Surface Type
    Exterior Window,         !- Construction Name
    E9 North Wall (T.N7.E17),!- Building Surface Name
    ,                        !- Outside Boundary Condition Object
    ,                        !- View Factor to Ground
    ,                        !- Frame and Divider Name
    ,                        !- Multiplier
    4,                       !- Number of Vertices
    69.2593992,293.94912,7.62,  !- X,Y,Z ==> Vertex 1 {m}
    69.2593992,293.94912,6.4008,  !- X,Y,Z ==> Vertex 2 {m}
    -14.73040488,293.94912,6.4008,  !- X,Y,Z ==> Vertex 3 {m}
    -14.73040488,293.94912,7.62;  !- X,Y,Z ==> Vertex 4 {m}

  FenestrationSurface:Detailed,
    E9 South Win (G.S2.E4.W1),  !- Name
    Window,                  !- Surface Type
    Exterior Window,         !- Construction Name
    E9 South Wall (G.S2.E4), !- Building Surface Name
    ,                        !- Outside Boundary Condition Object
    ,                        !- View Factor to Ground
    ,                        !- Frame and Divider Name
    ,                        !- Multiplier
    4,                       !- Number of Vertices
    -14.73070968,281.51328,2.1336,  !- X,Y,Z ==> Vertex 1 {m}
    -14.73070968,281.51328,0.9144,  !- X,Y,Z ==> Vertex 2 {m}
    69.2590944,281.51328,0.9144,  !- X,Y,Z ==> Vertex 3 {m}
    69.2590944,281.51328,2.1336;  !- X,Y,Z ==> Vertex 4 {m}

  FenestrationSurface:Detailed,
    E9 South Win (M.S5.E12.W1),  !- Name
    Window,                  !- Surface Type
    Exterior Window,         !- Construction Name
    E9 South Wall (M.S5.E12),!- Building Surface Name
    ,                        !- Outside Boundary Condition Object
    ,                        !- View Factor to Ground
    ,                        !- Frame and Divider Name
    ,                        !- Multiplier
    4,                       !- Number of Vertices
    -14.73070968,281.51328,4.8768,  !- X,Y,Z ==> Vertex 1 {m}
    -14.73070968,281.51328,3.6576,  !- X,Y,Z ==> Vertex 2 {m}
    69.2590944,281.51328,3.6576,  !- X,Y,Z ==> Vertex 3 {m}
    69.2590944,281.51328,4.8768;  !- X,Y,Z ==> Vertex 4 {m}

  FenestrationSurface:Detailed,
    E9 South Win (T.S8.E21.W1),  !- Name
    Window,                  !- Surface Type
    Exterior Window,         !- Construction Name
    E9 South Wall (T.S8.E21),!- Building Surface Name
    ,                        !- Outside Boundary Condition Object
    ,                        !- View Factor to Ground
    ,                        !- Frame and Divider Name
    ,                        !- Multiplier
    4,                       !- Number of Vertices
    -14.73070968,281.51328,7.62,  !- X,Y,Z ==> Vertex 1 {m}
    -14.73070968,281.51328,6.4008,  !- X,Y,Z ==> Vertex 2 {m}
    69.2590944,281.51328,6.4008,  !- X,Y,Z ==> Vertex 3 {m}
    69.2590944,281.51328,7.62;  !- X,Y,Z ==> Vertex 4 {m}

  FenestrationSurface:Detailed,
    E9 West Win (G.C3.E8.W1),!- Name
    Window,                  !- Surface Type
    Exterior Window,         !- Construction Name
    E9 West Wall (G.C3.E8),  !- Building Surface Name
    ,                        !- Outside Boundary Condition Object
    ,                        !- View Factor to Ground
    ,                        !- Frame and Divider Name
    ,                        !- Multiplier
    4,                       !- Number of Vertices
    -66.05778,288.1509096,2.1336,  !- X,Y,Z ==> Vertex 1 {m}
    -66.05778,288.1509096,0.9144,  !- X,Y,Z ==> Vertex 2 {m}
    -66.05778,287.3114904,0.9144,  !- X,Y,Z ==> Vertex 3 {m}
    -66.05778,287.3114904,2.1336;  !- X,Y,Z ==> Vertex 4 {m}

  FenestrationSurface:Detailed,
    E9 West Win (G.N1.E2.W1),!- Name
    Window,                  !- Surface Type
    Exterior Window,         !- Construction Name
    E9 West Wall (G.N1.E2),  !- Building Surface Name
    ,                        !- Outside Boundary Condition Object
    ,                        !- View Factor to Ground
    ,                        !- Frame and Divider Name
    ,                        !- Multiplier
    4,                       !- Number of Vertices
    -66.05778,292.4958336,2.1336,  !- X,Y,Z ==> Vertex 1 {m}
    -66.05778,292.4958336,0.9144,  !- X,Y,Z ==> Vertex 2 {m}
    -66.05778,290.1174792,0.9144,  !- X,Y,Z ==> Vertex 3 {m}
    -66.05778,290.1174792,2.1336;  !- X,Y,Z ==> Vertex 4 {m}

  FenestrationSurface:Detailed,
    E9 West Win (G.S2.E6.W1),!- Name
    Window,                  !- Surface Type
    Exterior Window,         !- Construction Name
    E9 West Wall (G.S2.E6),  !- Building Surface Name
    ,                        !- Outside Boundary Condition Object
    ,                        !- View Factor to Ground
    ,                        !- Frame and Divider Name
    ,                        !- Multiplier
    4,                       !- Number of Vertices
    -66.05778,285.3452256,2.1336,  !- X,Y,Z ==> Vertex 1 {m}
    -66.05778,285.3452256,0.9144,  !- X,Y,Z ==> Vertex 2 {m}
    -66.05778,282.9668712,0.9144,  !- X,Y,Z ==> Vertex 3 {m}
    -66.05778,282.9668712,2.1336;  !- X,Y,Z ==> Vertex 4 {m}

  FenestrationSurface:Detailed,
    E9 West Win (M.C6.E16.W1),  !- Name
    Window,                  !- Surface Type
    Exterior Window,         !- Construction Name
    E9 West Wall (M.C6.E16), !- Building Surface Name
    ,                        !- Outside Boundary Condition Object
    ,                        !- View Factor to Ground
    ,                        !- Frame and Divider Name
    ,                        !- Multiplier
    4,                       !- Number of Vertices
    -66.05778,288.1509096,4.8768,  !- X,Y,Z ==> Vertex 1 {m}
    -66.05778,288.1509096,3.6576,  !- X,Y,Z ==> Vertex 2 {m}
    -66.05778,287.3114904,3.6576,  !- X,Y,Z ==> Vertex 3 {m}
    -66.05778,287.3114904,4.8768;  !- X,Y,Z ==> Vertex 4 {m}

  FenestrationSurface:Detailed,
    E9 West Win (M.N4.E10.W1),  !- Name
    Window,                  !- Surface Type
    Exterior Window,         !- Construction Name
    E9 West Wall (M.N4.E10), !- Building Surface Name
    ,                        !- Outside Boundary Condition Object
    ,                        !- View Factor to Ground
    ,                        !- Frame and Divider Name
    ,                        !- Multiplier
    4,                       !- Number of Vertices
    -66.05778,292.4958336,4.8768,  !- X,Y,Z ==> Vertex 1 {m}
    -66.05778,292.4958336,3.6576,  !- X,Y,Z ==> Vertex 2 {m}
    -66.05778,290.1174792,3.6576,  !- X,Y,Z ==> Vertex 3 {m}
    -66.05778,290.1174792,4.8768;  !- X,Y,Z ==> Vertex 4 {m}

  FenestrationSurface:Detailed,
    E9 West Win (M.S5.E14.W1),  !- Name
    Window,                  !- Surface Type
    Exterior Window,         !- Construction Name
    E9 West Wall (M.S5.E14), !- Building Surface Name
    ,                        !- Outside Boundary Condition Object
    ,                        !- View Factor to Ground
    ,                        !- Frame and Divider Name
    ,                        !- Multiplier
    4,                       !- Number of Vertices
    -66.05778,285.3452256,4.8768,  !- X,Y,Z ==> Vertex 1 {m}
    -66.05778,285.3452256,3.6576,  !- X,Y,Z ==> Vertex 2 {m}
    -66.05778,282.9668712,3.6576,  !- X,Y,Z ==> Vertex 3 {m}
    -66.05778,282.9668712,4.8768;  !- X,Y,Z ==> Vertex 4 {m}

  FenestrationSurface:Detailed,
    E9 West Win (T.C9.E26.W1),  !- Name
    Window,                  !- Surface Type
    Exterior Window,         !- Construction Name
    E9 West Wall (T.C9.E26), !- Building Surface Name
    ,                        !- Outside Boundary Condition Object
    ,                        !- View Factor to Ground
    ,                        !- Frame and Divider Name
    ,                        !- Multiplier
    4,                       !- Number of Vertices
    -66.05778,288.1509096,7.62,  !- X,Y,Z ==> Vertex 1 {m}
    -66.05778,288.1509096,6.4008,  !- X,Y,Z ==> Vertex 2 {m}
    -66.05778,287.3114904,6.4008,  !- X,Y,Z ==> Vertex 3 {m}
    -66.05778,287.3114904,7.62;  !- X,Y,Z ==> Vertex 4 {m}

  FenestrationSurface:Detailed,
    E9 West Win (T.N7.E18.W1),  !- Name
    Window,                  !- Surface Type
    Exterior Window,         !- Construction Name
    E9 West Wall (T.N7.E18), !- Building Surface Name
    ,                        !- Outside Boundary Condition Object
    ,                        !- View Factor to Ground
    ,                        !- Frame and Divider Name
    ,                        !- Multiplier
    4,                       !- Number of Vertices
    -66.05778,292.4958336,7.62,  !- X,Y,Z ==> Vertex 1 {m}
    -66.05778,292.4958336,6.4008,  !- X,Y,Z ==> Vertex 2 {m}
    -66.05778,290.1174792,6.4008,  !- X,Y,Z ==> Vertex 3 {m}
    -66.05778,290.1174792,7.62;  !- X,Y,Z ==> Vertex 4 {m}

  FenestrationSurface:Detailed,
    E9 West Win (T.S8.E23.W1),  !- Name
    Window,                  !- Surface Type
    Exterior Window,         !- Construction Name
    E9 West Wall (T.S8.E23), !- Building Surface Name
    ,                        !- Outside Boundary Condition Object
    ,                        !- View Factor to Ground
    ,                        !- Frame and Divider Name
    ,                        !- Multiplier
    4,                       !- Number of Vertices
    -66.05778,285.3452256,7.62,  !- X,Y,Z ==> Vertex 1 {m}
    -66.05778,285.3452256,6.4008,  !- X,Y,Z ==> Vertex 2 {m}
    -66.05778,282.9668712,6.4008,  !- X,Y,Z ==> Vertex 3 {m}
    -66.05778,282.9668712,7.62;  !- X,Y,Z ==> Vertex 4 {m}

  Construction:FfactorGroundFloor,
    E1 Flr (G.W1.U1) SlabOnOrBelowGradeF073,  !- Name
    1.26343630645111,        !- F-Factor {W/m-K}
    3716.3111222016,         !- Area {m2}
    177.21072;               !- PerimeterExposed {m}

  Construction:FfactorGroundFloor,
    E2 Flr (G.N3.U3) SlabOnOrBelowGradeF073,  !- Name
    1.26343630645111,        !- F-Factor {W/m-K}
    538.05882581568,         !- Area {m2}
    58.4454;                 !- PerimeterExposed {m}

  Construction:FfactorGroundFloor,
    E2 Flr (G.S2.U2) SlabOnOrBelowGradeF073,  !- Name
    1.26343630645111,        !- F-Factor {W/m-K}
    534.4247376,             !- Area {m2}
    58.4454;                 !- PerimeterExposed {m}

  Construction:FfactorGroundFloor,
    E2 Flr (G.W1.U1) SlabOnOrBelowGradeF073,  !- Name
    1.26343630645111,        !- F-Factor {W/m-K}
    2907.10846370693,        !- Area {m2}
    0;                       !- PerimeterExposed {m}

  Construction:FfactorGroundFloor,
    E3 Flr (G.N2.U2) SlabOnOrBelowGradeF073,  !- Name
    1.26343630645111,        !- F-Factor {W/m-K}
    485.65988545248,         !- Area {m2}
    44.147232;               !- PerimeterExposed {m}

  Construction:FfactorGroundFloor,
    E3 Flr (G.S1.U1) SlabOnOrBelowGradeF073,  !- Name
    1.26343630645111,        !- F-Factor {W/m-K}
    1104.52243095072,        !- Area {m2}
    70.670928;               !- PerimeterExposed {m}

  Construction:FfactorGroundFloor,
    E9 Flr (G.C3.I5) SlabOnOrBelowGradeF073,  !- Name
    1.26343630645111,        !- F-Factor {W/m-K}
    348.161760449274,        !- Area {m2}
    3.730752;                !- PerimeterExposed {m}

  Construction:FfactorGroundFloor,
    E9 Flr (G.N1.I1) SlabOnOrBelowGradeF073,  !- Name
    1.26343630645111,        !- F-Factor {W/m-K}
    986.458321272961,        !- Area {m2}
    197.214744;              !- PerimeterExposed {m}

  Construction:FfactorGroundFloor,
    E9 Flr (G.S2.I3) SlabOnOrBelowGradeF073,  !- Name
    1.26343630645111,        !- F-Factor {W/m-K}
    986.458321272961,        !- Area {m2}
    197.214744;              !- PerimeterExposed {m}

