Version, 22.2;
! Inventory of EnergyPlus Objects in this Template, 
! and whether manual check/update is required
!-------------------------------------------------------------------------
!  | EnergyPlus 						| Manual |
!  | Object Name						| Update |
!-------------------------------------------------------------------------
!  | Material							|        |
!  | Construction						|   X    |
!  | ConstructionProperty:InternalHeatSource			|        |
!  | WindowMaterial:SimpleGlazingSystem				|        |
!  | WindowMaterial:Glazing					|        |
!  | WindowMaterial:Shade					|        |
!-------------------------------------------------------------------------
!

!x!<%#INITIALIZE
!x!require "modelkit/energyplus"
!x!
!x!# CHECK THESE
!x!
!x!# change to:
!x!# roof_type  == Roof Assembly Type
!x!# roof_cav_insul
!x!# roof_cont_insul
!x!# roof_int_type
!x!# roof_ext_type
!x!# roof_ext_refl
!x!# roof_ext_emit
!x!
!x!parameter "roof_base_type", :name => "Roof Assembly Type", :description => "Roof assembly type",
!x!  :domain => String,  # ["Insulation Entirely Above Deck", "Metal Roof", "Attic Roof with Wood Joists", "Attic Roof with Steel Joists", !x!"Concrete Roof"]
!x!  :default => "Insulation Entirely Above Deck"
!x!parameter "roof_base_cavity_insul", :name => "Roof Base Cavity Insulation", :description => "Roof base cavity insulation R-value",
!x!  :domain => Quantity,
!x!  :default => 0['R-IP']
!x!parameter "roof_base_cont_insul", :name => "Roof Base Continuous Insulation", :description => "Roof base continuous insulation R-value",
!x!  :domain => Quantity,
!x!  :default => 20['R-IP']
!x!parameter "roof_exterior_type", :name => "Roof Exterior Type", :description => "Roof exterior type",
!x!  :domain => String,  # ["None", "Roof Membrane", "Metal Roof", "Metal Decking", "Asphalt Shingles", "Wood Shingles", "Tile"]
!x!  :default => "Roof Membrane"
!x!parameter "roof_reflectance", :name => "Roof Reflectance", :description => "Reflective property of roof surface",
!x!  :domain => Numeric,
!x!  :default => 0.3  # Roof "aged" solar reflectance
!x!parameter "roof_emittance", :name => "Roof Emittance", :description => "Emittance property of roof surface",
!x!  :domain => Numeric,
!x!  :default => 0.85
!x!parameter "roof_interior_type", :name => "Roof Interior Type", :description => "Roof interior type",
!x!  :domain => String,  # ["None", "Metal Decking", "Gypsum 1/2in", "Gypsum 5/8in"]
!x!  :default => "Metal Decking"
!x!
!x!parameter "wall_base_type", :name => "Wall Base Type", :description => "Wall base type",
!x!  :domain => String,  # ["Concrete MW Solid Grouted", "Concrete NW Solid", "Concrete MW Partially Grouted", "Metal Panels", "Steel Framing at 16 in. on center", "Steel Framing at 24 in. on center", "Wood Framing at 16 in. on center", "Wood Framing at 24 in. on center", "Concrete with Steel Framing", "Concrete with Wood Framing", "Granite 10in"]
!x!  :default => "Steel Framing at 16 in. on center"
!x!parameter "wall_base_cavity_insul", :name => "Wall Base Cavity Insulation", :description => "Wall base cavity insulation R-value",
!x!  :domain => Quantity,
!x!  :default => 13['R-IP']
!x!parameter "wall_base_cont_insul", :name => "Wall Base Continuous Insulation", :description => "Wall base continuous insulation R-value",
!x!  :domain => Quantity,
!x!  :default => 7.5['R-IP']
!x!parameter "wall_exterior_type", :name => "Wall Exterior Type", :description => "Wall exterior type",
!x!  :domain => String,  # ["None", "Metal Siding", "Wood Siding", "Stucco", "Brick Veneer", "Concrete Block Veneer", "Spandrel Glass", "Stone Slab"]
!x!  :default => "Stucco"
!x!parameter "wall_interior_type", :name => "Wall Interior Type", :description => "Wall interior type",
!x!  :domain => String,  # ["None", "Gypsum 1/2in", "Gypsum 5/8in"]
!x!  :default => "Gypsum 5/8in"
!x!
!x!parameter "window_u", :name => "Window U-Value", :description => "Window U-value",
!x!  :domain => Quantity,
!x!  :default => 0.35['U-IP']
!x!parameter "window_shgc", :name => "Window SHGC", :description => "Window solar heat gain coefficient",
!x!  :domain => Numeric,
!x!  :default => 0.40
!x!parameter "window_transmittance", :name => "Window Visible Light Transmittance", :description => "Window visible light transmittance",
!x!  :domain => Numeric,
!x!  :default => 0.40
!x!
!x!parameter "window_shade_transmittance",
!x!  :domain => Numeric,
!x!  :default => 0.5
!x!parameter "window_shade_permeability",
!x!  :domain => Numeric,
!x!  :default => 0.25
!x!parameter "window_shade_setpoint",
!x!  :domain => Quantity,
!x!  :default => 20['W/m2']  # High solar setpoint (W/m2)
!x!
!x!parameter "skylight_u", :default=>0.55['U-IP']
!x!parameter "skylight_shgc", :default=>0.40
!x!parameter "skylight_type", :default=>"DIFFUSING"  # DIFFUSING | CLEAR
!x!
!x!parameter "foundation_type", :name => "Foundation Type", :description => "Foundation type",
!x!  :domain => String,  # ["None", "Full Slab", "Interior Horizontal", "Interior Vertical", "Exterior Horizontal", "Exterior Vertical"]
!x!  :default => "None"
!x!# Can change to import this from foundation.pxt; identical definition
!x!
!x!parameter "thermal_bridging", :name => "Thermal Bridging", :description => "Heat losses due to thermal bridging",
!x!  :domain => Boolean,
!x!  :default => true
!x!
!x!# Dimensions for thermal bridging calculations
!x!parameter "parapet_length", :default=>0.0
!x!parameter "floor_length", :default=>0.0
!x!parameter "wall_area", :default=>1.0
!x!
!x!parameter "radiant_ceilings", :default=>false
!x!parameter "radiant_tube_spacing", :default=>0.20['m']  # Radiant tube spacing (m) - yes, meters because Clina uses SI
!x!%>
!x!
!x!<%
!x!require("modelkit/energyplus")
!x!require("modelkit/envelope")
!x!%>
!x!
!x!<%# Roof Constructions %>
!x!
!x!<%
!x!# Calculate Effective Insulation Value
!x!roof_cont_thick, roof_cont_cond, roof_cav_thick, roof_cav_cond = Envelope.roof_insulation(roof_base_type, roof_base_cavity_insul, roof_base_cont_insul)
!x!
!x!layers = []
!x!if (roof_exterior_type != "None")
!x!  layers << roof_exterior_type
!x!end
!x!if (roof_base_type == Envelope::ROOF_CONCRETE)
!x!  layers << "Concrete NW Solid 8in"
!x!end
!x!if (roof_base_cont_insul != 0)
!x!  layers << "Roof Continuous Insulation"
!x!end
!x!if (roof_base_cavity_insul != 0)
!x!  layers << "Roof Cavity Effective Insulation"
!x!end
!x!if (roof_interior_type != "None")
!x!  layers << roof_interior_type
!x!end
!x!if (radiant_ceilings)
!x!  layers << "Plaster 1/4in"
!x!  layers << "Plaster 1/4in"
!x!end
!x!if (roof_cont_thick <= 0.0)
!x!  roof_cont_thick = 0.0001
!x!end
!x!if (roof_cav_thick <= 0.0)
!x!  roof_cav_thick = 0.0001
!x!end
!x!%>

Material,
  Roof Continuous Insulation,  !- Name
  VeryRough,               !- Roughness
  <%= roof_cont_thick %>,  !- Thickness {m}
  <%= roof_cont_cond %>,  !- Conductivity {W/m-K}
  32,                      !- Density {kg/m3}(2013 ASHRAE Handbook - Fundamentals Section 26 Table 1 - Extruded polystyrene, smooth skin - aged 180 days)
  1465;                     !- Specific Heat {J/kg-K}(2013 ASHRAE Handbook - Fundamentals Section 26 Table 1 - Extruded polystyrene, smooth skin - aged 180 days)

Material,
  Roof Cavity Effective Insulation,  !- Name
  VeryRough,               !- Roughness
  <%= roof_cav_thick %>,  !- Thickness {m}
  <%= roof_cav_cond %>,  !- Conductivity {W/m-K}
  8.17,                      !- Density {kg/m3}(2013 ASHRAE Handbook - Fundamentals Section 26 Table 1 - Glass-fiber batts)
  837;                     !- Specific Heat {J/kg-K}(2013 ASHRAE Handbook - Fundamentals Section 26 Table 1 - Glass-fiber batts)

!====manual===
!x!Construction,
!x!  Exterior Roof,           !- Name
!x!<% EnergyPlus.each(layers) do |layer| %>
!x!  <%= layer %>,  !- Layer
!x!<% end %>
!x!
!x!<% if (radiant_ceilings) %>
!x!ConstructionProperty:InternalHeatSource,
!x!  Radiant Exterior Roof,  !- Name
!x!  <%= layers.count - 1 %>,                       !- Source Present After Layer Number
!x!  <%= layers.count - 1 %>,                       !- Temperature Calculation Requested After Layer Number
!x!  1,                       !- Dimensions for the CTF Calculation
!x!  <%= radiant_tube_spacing %>,  !- Tube Spacing {m}
!x!  ;
!x!
!x!Construction,
!x!  Radiant Exterior Roof,
!x!  <% EnergyPlus.each(layers) do |layer| %>
!x!  <%= layer %>,  !- Layer
!x!<% end %>

!x!<% else %>
!x!Construction,
!x!  Radiant Exterior Roof,  !- Name
!x!<% EnergyPlus.each(layers) do |layer| %>
!x!  <%= layer %>,  !- Layer
!x!<% end %>
!x!<% end %>

!========
!x!<%# Exterior Wall Constructions %>
!x!
!x!<%
!x!# Calculate Effective Insulation Value
!x!wall_cont_thick, wall_cont_cond, wall_cav_thick, wall_cav_cond = Envelope.wall_insulation(wall_base_type, wall_base_cavity_insul, wall_base_cont_insul, wall_area, floor_length, parapet_length)
!x!
!x!layers = []
!x!if (wall_exterior_type != "None")
!x!  layers << wall_exterior_type
!x!end
!x!if (wall_exterior_type == "Brick Veneer") || (wall_exterior_type == "Concrete Block Veneer")
!x!  layers << "Air Space"
!x!end
!x!case wall_base_type
!x!when Envelope::WALL_CONCRETE_MW_SOLID_GROUTED, Envelope::WALL_CONCRETE_STEEL_FRAMING, Envelope::WALL_CONCRETE_WOOD_FRAMING
!x!  layers << "Concrete MW Solid Grouted 8in"
!x!when Envelope::WALL_CONCRETE_NW_SOLID
!x!  layers << "Concrete NW Solid 8in"
!x!when Envelope::WALL_CONCRETE_MW_PARTIALLY_GROUTED
!x!  layers << "Concrete MW Partially Grouted 8in"
!x!when Envelope::WALL_GRANITE_10IN
!x!  layers << "Granite 10in"
!x!end
!x!if (wall_base_cont_insul != 0)
!x!  layers << "Wall Continuous Insulation"
!x!end
!x!if (wall_base_cavity_insul != 0)
!x!  layers << "Wall Cavity Effective Insulation"
!x!end
!x!if (wall_interior_type != "None")
!x!  layers << wall_interior_type
!x!end
!x!if (wall_cont_thick <= 0.0)
!x!  wall_cont_thick = 0.0001
!x!end
!x!if (wall_cav_thick <= 0.0)
!x!  wall_cav_thick = 0.0001
!x!end
!x! iv_test_layers = layers
!x!%>
!x!
Material,
  Wall Continuous Insulation,  !- Name
  MediumSmooth,               !- Roughness
  <%= wall_cont_thick %>,  !- Thickness {m}
  <%= wall_cont_cond %>,  !- Conductivity {W/m-K}
  32,                      !- Density {kg/m3}(2013 ASHRAE Handbook - Fundamentals Section 26 Table 1 - Extruded polystyrene, smooth skin - aged 180 days)
  1465;                     !- Specific Heat {J/kg-K}(2013 ASHRAE Handbook - Fundamentals Section 26 Table 1 - Extruded polystyrene, smooth skin - aged 180 days)

Material,
  Wall Cavity Effective Insulation,  !- Name
  VeryRough,               !- Roughness
  <%= wall_cav_thick %>,  !- Thickness {m}
  <%= wall_cav_cond %>,  !- Conductivity {W/m-K}
  8.17,                      !- Density {kg/m3}(2013 ASHRAE Handbook - Fundamentals Section 26 Table 1 - Glass-fiber batts)
  837;                     !- Specific Heat {J/kg-K}(2013 ASHRAE Handbook - Fundamentals Section 26 Table 1 - Glass-fiber batts)
!====manual
!x!
!x!Construction,
!x!  Exterior Wall,           !- Name
!x!<% EnergyPlus.each(layers) do |layer| %>
!x!  <%= layer %>,  !- Layer
!x!<% end %>
!x!
!========
Construction,
  Basement Wall,           !- Name
  Gypsum 5/8in,   !- Outside Layer
  Concrete HW Solid 8in;  !- Layer 2
!x!
!x!<%# Floor Constructions %>
!x!
Construction,
  Interior Floor,          !- Name
  Concrete MW Solid 4in,  !- Outside Layer
  Carpet;                  !- Layer 2
!x!
!x!<% if (radiant_ceilings) %>
ConstructionProperty:InternalHeatSource,
  Radiant Interior Floor,  !- Name
  1,                       !- Source Present After Layer Number
  1,                       !- Temperature Calculation Requested After Layer Number
  1,                       !- Dimensions for the CTF Calculation
  <%= radiant_tube_spacing %>,  !- Tube Spacing {m}
  ;  

 Construction,
  Radiant Interior Floor,
  Plaster 1/4in,           !- Outside Layer
  Plaster 1/4in,           !- Layer 2
  Rigid Insulation 1in,    !- Layer 3
  Concrete MW Solid 4in,  !- Layer 4
  Carpet;                  !- Layer 5

!x!<% else %>

Construction,
  Radiant Interior Floor,  !- Name
  Concrete MW Solid 4in,  !- Layer 2
  Carpet;                  !- Layer 3
!x!<% end %>

Construction,
  Soffit Floor,            !- Name
  Floor Insulation,    !- Layer 1
  Concrete HW Solid 8in,  !- Layer 2
  Carpet;                  !- Layer 3

Construction,
  Interior Ceiling,        !- Name
  Carpet,                  !- Outside Layer
  Concrete MW Solid 4in;  !- Layer 2

!x!<% if (radiant_ceilings) %>
ConstructionProperty:InternalHeatSource,
  Radiant Interior Ceiling,  !- Name
  4,                       !- Source Present After Layer Number
  4,                       !- Temperature Calculation Requested After Layer Number
  1,                       !- Dimensions for the CTF Calculation
  <%= radiant_tube_spacing %>,  !- Tube Spacing {m}
  ;

 Construction,
  Radiant Interior Ceiling,
  Carpet,                  !- Outside Layer
  Concrete MW Solid 4in,  !- Layer 2
  Rigid Insulation 1in,    !- Layer 3
  Plaster 1/4in,           !- Layer 4
  Plaster 1/4in;           !- Layer 5

!x!<% else %>

Construction,
  Radiant Interior Ceiling,  !- Name
  Carpet,                    !- Outside Layer
  Concrete MW Solid 4in;  !- Layer 2
!x!<% end %>

Construction,
  Attic Floor,             !- Name
  Gypsum 5/8in,           !- Outside Layer
  Plywood;                !- Layer 2

!x!<% if (radiant_ceilings) %>
ConstructionProperty:InternalHeatSource,
  Radiant Attic Floor,     !- Name
  1,                       !- Source Present After Layer Number
  1,                       !- Temperature Calculation Requested After Layer Number
  1,                       !- Dimensions for the CTF Calculation
  <%= radiant_tube_spacing %>,  !- Tube Spacing {m}
  ;
 
Construction,
  Radiant Attic Floor,
  Plaster 1/4in,           !- Outside Layer
  Plaster 1/4in,           !- Layer 2
  Rigid Insulation 1in,    !- Layer 3
  Plywood;                !- Layer 4
!x!<% else %>

Construction,
  Radiant Attic Floor,     !- Name
  Gypsum 5/8in,           !- Outside Layer
  Plywood;                !- Layer 2
!x!<% end %>
!x!
Construction,
  Interior Ceiling To Attic,  !- Name
  Plywood,                !- Outside Layer
  Gypsum 5/8in;           !- Layer 2
!x!
!x!
!x!<% if (radiant_ceilings) %>
ConstructionProperty:InternalHeatSource,
  Radiant Interior Ceiling To Attic,  !- Name
  3,                       !- Source Present After Layer Number
  3,                       !- Temperature Calculation Requested After Layer Number
  1,                       !- Dimensions for the CTF Calculation
  <%= radiant_tube_spacing %>,  !- Tube Spacing {m}
  ;

 Construction,
  Radiant Interior Ceiling To Attic,
  Plywood,                !- Outside Layer
  Rigid Insulation 1in,    !- Layer 2
  Plaster 1/4in,           !- Layer 3
  Plaster 1/4in;           !- Layer 4
!x!<% else %>

Construction,
  Radiant Interior Ceiling To Attic,  !- Name
  Plywood,                !- Outside Layer
  Gypsum 5/8in;           !- Layer 2
!x!<% end %>
!x!
!x!<%# Slab-On-Grade Constructions %>
!x!
Construction,
  Exterior Floor,          !- Name
  Concrete HW Solid 6in,  !- Outside Layer
  Carpet;                  !- Layer 2
!x!
!x!<% if (foundation_type == "Full Slab")
!x!  iv_outside_layer1 = "Slab_Insulation"
!x!  iv_outside_layer2 = "Concrete HW Solid 6in"
!x!  iv_outside_layers = iv_outside_layer1 + "," + iv_outside_layer2
!x!else
!x!  iv_outside_layer2 = "Concrete HW Solid 6in"
!x!  iv_outside_layers = iv_outside_layer2
!x!end %>
!x!
Construction,
  Exterior Slab,          !- Name
  <%= iv_outside_layers %>,  !- Outside Layer
  Carpet;                  !- Layer 2

Construction,
  Exterior Floor Slab,     !- Name
  Concrete HW Solid 8in;  !- Outside Layer

Construction,
  Slab Footing,    !- Name
  Concrete NW Solid 6in;         !- Outside Layer
!x!
!x!<%# Opaque Door Constructions %>

Construction,
  MetalSlabDoor, !- Name {}
  Metal Door, !- Outside Layer {}
  Air-gap:0.1300, !- Layer 2 {}
  Metal Door; !- Layer 3 {}

Construction,
  Wood Door,           !- Name
  Wood Door Panel;     !- Outside Layer

Construction,
  Overhead Door,           !- Name
  Overhead Door Panel;     !- Outside Layer

Construction,
  Swinging Door,           !- Name
  Opaque Door Panel;     !- Outside Layer

!x!<%# Vertical Glazing Constructions %>

Construction,
  Exterior Window,         !- Name
  Theoretical Glazing;     !- Outside Layer

Construction,
  Glass Door,         !- Name
  Clear Glass;     !- Outside Layer

!x!<%# Roof Materials %>

!x!<%
!x!roof_absorptance = 1.0 - roof_reflectance
!x!%>

Material,
  Roof Membrane, !- Name {}
  VeryRough, !- Roughness {}
  0.0095, !- Thickness {m}
  0.16, !- Conductivity {W/m-K}
  1121.29, !- Density {kg/m3}
  1460.0, !- Specific Heat {J/kg-K}
  <%= roof_emittance %>, !- Thermal Absorptance
  <%= roof_absorptance %>, !- Solar Absorptance
  <%= roof_absorptance %>; !- Visible Absorptance

Material,
  Metal Decking,           !- Name
  MediumSmooth,            !- Roughness
  0.0015,                  !- Thickness {m}
  45,        !- Conductivity {W/m-K}
  7689,      !- Density {kg/m3}
  418,       !- Specific Heat {J/kg-K}
  0.9000,                  !- Thermal Absorptance
  0.7000,                  !- Solar Absorptance
  0.3000;                  !- Visible Absorptance

Material,
  Metal Roof,              !- Name
  Smooth,                  !- Roughness
  0.0015,                  !- Thickness {m}
  45,        !- Conductivity {W/m-K}
  7689,      !- Density {kg/m3}
  418,       !- Specific Heat {J/kg-K}
  <%= roof_emittance %>,   !- Thermal Absorptance
  <%= roof_absorptance %>,  !- Solar Absorptance
  <%= roof_absorptance %>;  !- Visible Absorptance

Material,
  Gypsum 5/8in,           !- Name
  MediumSmooth,            !- Roughness
  0.016,                   !- Thickness {m}
  0.1622,                  !- Conductivity {W/m-K}
  800,                     !- Density {kg/m3}
  1090,                    !- Specific Heat {J/kg-K}
  0.9,                     !- Thermal Absorptance
  0.7,                     !- Solar Absorptance
  0.7;                     !- Visible Absorptance

Material,
  Concrete MW Solid Grouted 8in,  !- Name
  Rough,                   !- Roughness
  0.2032,                  !- Thickness {m}
  1.32,  !- Conductivity {W/m-K}
  1968,  !- Density {kg/m3}
  836.8,  !- Specific Heat {J/kg-K}
  0.9,                     !- Thermal Absorptance
  0.7,                     !- Solar Absorptance
  0.2;                     !- Visible Absorptance

Material,
  Concrete MW Solid Grouted 6in,  !- Name
  Rough,                   !- Roughness
  0.1524,                  !- Thickness {m}
  1.32,  !- Conductivity {W/m-K}
  1968,  !- Density {kg/m3}
  836.8,  !- Specific Heat {J/kg-K}
  0.9,                     !- Thermal Absorptance
  0.7,                     !- Solar Absorptance
  0.2;                     !- Visible Absorptance

Material,
  Asphalt Shingles,    !- Name
  VeryRough,               !- Roughness
  0.0032,                  !- Thickness {m}
  0.04,                    !- Conductivity {W/m-K}
  1120,                    !- Density {kg/m3}
  1260;                    !- Specific Heat {J/kg-K}

Material,
  Wood Shingles,       !- Name
  VeryRough,               !- Roughness
  0.0064,                  !- Thickness {m}
  0.04,                    !- Conductivity {W/m-K}
  592,                     !- Density {kg/m3}
  1300;                    !- Specific Heat {J/kg-K}

Material,
  Tile,       !- Name
  VeryRough,               !- Roughness
  0.0127,                  !- Thickness {m}
  1.59,                    !- Conductivity {W/m-K}
  1920,                    !- Density {kg/m3}
  1260;                    !- Specific Heat {J/kg-K}

!x!<%# Exterior Wall Materials %>

Material,
  Gypsum 1/2in,           !- Name
  MediumSmooth,            !- Roughness
  0.0127,                   !- Thickness {m}
  0.1622,                  !- Conductivity {W/m-K}
  800,                     !- Density {kg/m3}
  1090,                    !- Specific Heat {J/kg-K}
  0.9,                     !- Thermal Absorptance
  0.7,                     !- Solar Absorptance
  0.7;                     !- Visible Absorptance

Material,
  Stucco,           !- Name
  Smooth,                  !- Roughness
  0.01015,                 !- Thickness {m}
  0.72,                    !- Conductivity {W/m-K}
  1856,                    !- Density {kg/m3}
  840,                     !- Specific Heat {J/kg-K}
  0.9,                     !- Thermal Absorptance
  0.7,                     !- Solar Absorptance
  0.7;                     !- Visible Absorptance

Material,
  Metal Siding,          !- Name
  Smooth,            !- Roughness
  0.0015,                    !- Thickness {m}
  45,         !- Conductivity {W/m-K}
  7689,       !- Density {kg/m3}
  418,        !- Specific Heat {J/kg-K}
  0.9000000,               !- Thermal Absorptance
  0.7000000,               !- Solar Absorptance
  0.7000000;               !- Visible Absorptance

Material,
  Wood Siding,         !- Name
  MediumSmooth,            !- Roughness
  0.0127,                  !- Thickness {m}
  0.09,                    !- Conductivity {W/m-K}
  592,                     !- Density {kg/m3}
  1170;                    !- Specific Heat {J/kg-K}

Material,
  Concrete NW Solid 6in,  !- Name
  Rough,                   !- Roughness
  0.1524,                  !- Thickness {m}
  2.3075,  !- Conductivity {W/m-K}
  1968,  !- Density {kg/m3}
  836.8,  !- Specific Heat {J/kg-K}
  0.9,                     !- Thermal Absorptance
  0.7,                     !- Solar Absorptance
  0.2;                     !- Visible Absorptance

Material,
  Concrete NW Solid 8in,  !- Name
  Rough,                   !- Roughness
  0.2032,                  !- Thickness {m}
  2.3075,  !- Conductivity {W/m-K}
  1968,  !- Density {kg/m3}
  836.8,  !- Specific Heat {J/kg-K}
  0.9,                     !- Thermal Absorptance
  0.7,                     !- Solar Absorptance
  0.2;                     !- Visible Absorptance

Material,
  Concrete MW Partially Grouted 8in,  !- Name
  Rough,                   !- Roughness
  0.2032,                  !- Thickness {m}
  0.935,  !- Conductivity {W/m-K}
  1968,  !- Density {kg/m3}
  836.8,  !- Specific Heat {J/kg-K}
  0.9,                     !- Thermal Absorptance
  0.7,                     !- Solar Absorptance
  0.2;                     !- Visible Absorptance

Material,
  Concrete HW Solid 8in,  !- Name
  Rough,                   !- Roughness
  0.2032,                  !- Thickness {m}
  1.311,  !- Conductivity {W/m-K}
  2240,  !- Density {kg/m3}
  836.8,  !- Specific Heat {J/kg-K}
  0.9000,                  !- Thermal Absorptance
  0.7000,                  !- Solar Absorptance
  0.7000;                  !- Visible Absorptance

Material,
  Brick Veneer,          !- Name
  MediumRough,             !- Roughness
  0.1016,                  !- Thickness {m}
  0.89,        !- Conductivity {W/m-K}
  1920,      !- Density {kg/m3}
  790,       !- Specific Heat {J/kg-K}
  0.9,                     !- Thermal Absorptance
  0.7,                     !- Solar Absorptance
  0.7;                     !- Visible Absorptance

Material,
  Concrete Block Veneer,  !- Name
  MediumRough,             !- Roughness
  0.1016,                  !- Thickness {m}
  0.53,                    !- Conductivity {W/m-K}
  1280,                    !- Density {kg/m3}
  840;                     !- Specific Heat {J/kg-K}

Material,
  Stone Slab,  !- Name
  MediumRough,             !- Roughness
  0.051,                   !- Thickness {m}
  1.14,                    !- Conductivity {W/m-K}
  1920,                    !- Density {kg/m3}
  900;                     !- Specific Heat {J/kg-K}

Material,
  Spandrel Glass,  !- Name
  Smooth,                  !- Roughness
  0.0064,                  !- Thickness {m}
  0.99,                    !- Conductivity {W/m-K}
  2528,                    !- Density {kg/m3}
  880;                     !- Specific Heat {J/kg-K}

Material:AirGap,
  Air Space,  !- Name
  0.16;                    !- Thermal Resistance {m2-K/W}

Material,
  Granite 10in,  !- Name
  MediumRough,             !- Roughness
  0.254,                   !- Thickness {m}
  4.3,                     !- Conductivity {W/m-K}
  2880,                    !- Density {kg/m3}
  790;                     !- Specific Heat {J/kg-K}

Material,
  Wood 6in,          !- Name
  MediumSmooth,            !- Roughness
  0.15,                    !- Thickness {m}
  0.12,         !- Conductivity {W/m-K}
  540,       !- Density {kg/m3}
  1210,        !- Specific Heat {J/kg-K}
  0.9000000,               !- Thermal Absorptance
  0.7000000,               !- Solar Absorptance
  0.7000000;               !- Visible Absorptance

Material,
  Concrete MW Solid 4in,  !- Name
  Rough,                   !- Roughness
  0.1016,                  !- Thickness {m}
  0.858,  !- Conductivity {W/m-K}
  1968,  !- Density {kg/m3}
  836.8,  !- Specific Heat {J/kg-K}
  0.9,                     !- Thermal Absorptance
  0.7,                     !- Solar Absorptance
  0.2;                     !- Visible Absorptance

Material,
  Concrete HW Solid 6in, !- Name
  Rough,                   !- Roughness
  0.1524,                  !- Thickness {m}
  1.311,  !- Conductivity {W/m-K}
  2240,  !- Density {kg/m3}
  836.8,  !- Specific Heat {J/kg-K}
  0.9000,                  !- Thermal Absorptance
  0.7000,                  !- Solar Absorptance
  0.7000;                  !- Visible Absorptance

Material,
  Plywood,                !- Name
  MediumSmooth,            !- Roughness
  1.9099999E-02,           !- Thickness {m}
  0.12,         !- Conductivity {W/m-K}
  540,       !- Density {kg/m3}
  1210,        !- Specific Heat {J/kg-K}
  0.9000000,               !- Thermal Absorptance
  0.7800000,               !- Solar Absorptance
  0.7800000;               !- Visible Absorptance

Material,
  Plaster 1/4in,           !- Name
  MediumSmooth,            !- Roughness
  0.00635,                 !- Thickness {m}
  0.58,                    !- Conductivity {W/m-K}
  800,                     !- Density {kg/m3}
  1090,                    !- Specific Heat {J/kg-K}
  0.9,                     !- Thermal Absorptance
  0.7,                     !- Solar Absorptance
  0.7;                     !- Visible Absorptance

Material,
  Rigid Insulation 1in,    !- Name
  MediumSmooth,            !- Roughness
  0.0254,                  !- Thickness {m}
  0.0288,                  !- Conductivity {W/m-K}
  29,                      !- Density {kg/m3}
  1210;                    !- Specific Heat {J/kg-K}

Material,
  AtticFloor Insulation, !- Name {}
  MediumRough, !- Roughness {}
  0.2377, !- Thickness {m}
  0.045, !- Conductivity {W/m-K}
  265.0, !- Density {kg/m3}
  836.8, !- Specific Heat {J/kg-K}
  0.9, !- Thermal Absorptance {}
  0.7, !- Solar Absorptance {}
  0.7; !- Visible Absorptance {}

Material,
  Floor Insulation,  !- Name
  MediumRough,  !- Roughness
  0.0795,  !- Thickness
  0.0450,  !- Conductivity
  265.0000,  !- Density
  836.8000,  !- Specific Heat
  0.9000,  !- Thermal Absorptance
  0.7000,  !- Solar Absorptance
  0.7000;  !- Visible Absorptance

Material,
  Carpet,                  !- Name
  VeryRough,               !- Roughness
  0.0127,                  !- Thickness {m}
  0.06,                    !- Conductivity {W/m-K}
  288,                     !- Density {kg/m3}
  1380,                    !- Specific Heat {J/kg-K}
  0.9,                     !- Thermal Absorptance
  0.7,                     !- Solar Absorptance
  0.8;                     !- Visible Absorptance

Material,
  Wall Insulation 4in R-19,    !- Name
  MediumSmooth,               !- Roughness
  0.1,                     !- Thickness {m}
  0.0288,                  !- Conductivity {W/m-K}
  29,                      !- Density {kg/m3}
  1210;                    !- Specific Heat {J/kg-K}

Material,
  Concrete HW Solid 2in White,  !- Name
  MediumRough,             !- Roughness
  5.0901599E-02,           !- Thickness {m}
  1.729577,                !- Conductivity {W/m-K}
  2242.585,                !- Density {kg/m3}
  836.8,                   !- Specific Heat {J/kg-K}
  0.90,                    !- Thermal Absorptance
  0.30,                    !- Solar Absorptance
  0.30;                    !- Visible Absorptance

Material,
  Drop-Ceiling Acoustic Tile,       !- Name
  MediumSmooth,            !- Roughness
  0.0191,                  !- Thickness {m}
  0.06,                    !- Conductivity {W/m-K}
  368,                     !- Density {kg/m3}
  590,                     !- Specific Heat {J/kg-K}
  0.90,                    !- Thermal Absorptance
  0.30,                    !- Solar Absorptance
  0.30;                    !- Visible Absorptance

Material,
  Perimeter Buffer,       !- Name
  MediumSmooth,            !- Roughness
  0.001,                  !- Thickness {m}
  1000.00,                    !- Conductivity {W/m-K}
  0.001,                     !- Density {kg/m3}
  100.0,                     !- Specific Heat {J/kg-K}
  0.999,                    !- Thermal Absorptance
  0.999,                    !- Solar Absorptance
  0.999;                    !- Visible Absorptance

Construction,
  Light Shelf Window, ! - Name
  Clear Glass;        ! - Outside Layer

Construction,
  Exterior Light Shelf,                   ! - Name
  Concrete HW Solid 2in White; ! - Outside Layer

Construction,
  Interior Wall,           !- Name
  Gypsum 5/8in,           !- Outside Layer
  Air Space,              !- Layer 1
  Gypsum 5/8in;           !- Layer 2

Construction,
  Insulated Interior Wall,  !- Name
  Gypsum 5/8in,           !- Outside Layer
  Wall Insulation 4in R-19,    !- Layer 1
  Gypsum 5/8in;           !- Layer 2

Construction,
  Interior Furnishings,    !- Name
  Wood 6in;          !- Outside Layer

Construction,
  Drop Ceiling, ! - Name
  Drop-Ceiling Acoustic Tile;        ! - Outside Layer

Construction,
  Perimeter Air Wall, ! - Name
  Perimeter Buffer;        ! - Outside Layer

WindowMaterial:SimpleGlazingSystem,
  Theoretical Glazing,     !- Name
  <%= window_u %>,  !- U-Factor {W/m2-K}
  <%= window_shgc %>,  !- Solar Heat Gain Coefficient
  <%= window_transmittance %>;  !- Visible Transmittance

WindowMaterial:Glazing,
  Clear Glass,             !- Name
  SpectralAverage,         !- Optical Data Type
  ,                        !- Window Glass Spectral Data Set Name
  0.003,                   !- Thickness {m}
  0.837,                   !- Solar Transmittance at Normal Incidence
  7.50E-02,                !- Front Side Solar Reflectance at Normal Incidence
  7.50E-02,                !- Back Side Solar Reflectance at Normal Incidence
  0.898,                   !- Visible Transmittance at Normal Incidence
  8.10E-02,                !- Front Side Visible Reflectance at Normal Incidence
  8.10E-02,                !- Back Side Visible Reflectance at Normal Incidence
  0.0,                     !- Infrared Transmittance at Normal Incidence
  0.84,                    !- Front Side Infrared Hemispherical Emissivity
  0.84,                    !- Back Side Infrared Hemispherical Emissivity
  0.90;                    !- Conductivity {W/m-K}

WindowMaterial:SimpleGlazingSystem,
  Air Space Glazing,     !- Name
  7.0,  !- U-Factor {W/m2-K}
  0.99,  !- Solar Heat Gain Coefficient
  0.99;  !- Visible Transmittance

Construction,
  Air Space Window,         !- Name
  Air Space Glazing;     !- Outside Layer

Material,
  Metal Door, !- Name {}
  Smooth, !- Roughness {}
  0.0013106, !- Thickness {m}
  45.31492, !- Conductivity {W/m-K}
  7833.028, !- Density {kg/m3}
  502.08, !- Specific Heat {J/kg-K}
  0.8, !- Thermal Absorptance {}
  0.5, !- Solar Absorptance {}
  0.5; !- Visible Absorptance {}

Material,
  Wood Door Panel, !- Name {}
  Rough,                !- Roughness
  0.0633984,            !- Thickness {m}
  0.0873267038564152,   !- Conductivity {W/m-K}
  512.64,               !- Density {kg/m^3}
  1214.23,              !- Specific Heat {J/kg-K}
  ,                     !- Thermal Absorptance
  ,                     !- Solar Absorptance
  ;                     !- Visible Absorptance

Material:NoMass,
  Opaque Door Panel,   !- Name
  MediumRough,             !- Roughness
  0.352236703,             !- Thermal Resistance
  0.9,                     !- Thermal Absorptance
  0.7,                     !- Solar Absorptance
  0.7;                     !- Visible Absorptance

Material:AirGap,
  Air-gap:0.1300, !- Name {}
  0.13; !- Thermal Resistance {m2-K/W}

Material:NoMass,
  Overhead Door Panel,     !- Name
  MediumRough,             !- Roughness
  0.352,                   !- Thermal Resistance {m2-K/W}
  0.9,                     !- Thermal Absorptance
  0.7,                     !- Solar Absorptance
  0.7;                     !- Visible Absorptance

Construction,
  AtticFloor1, !- Name {}
  Gypsum 5/8in, !- Outside Layer {}
  AtticFloor Insulation, !- Layer 2 {}
  Gypsum 5/8in; !- Layer 3 {}

WindowMaterial:Glazing,
  Clear Acrylic Plastic,   !- Name
  SpectralAverage,         !- Optical Data Type
  ,                        !- Window Glass Spectral Data Set Name
  0.003,                   !- Thickness {m}
  0.92,                    !- Solar Transmittance at Normal Incidence
  0.05,                    !- Front Side Solar Reflectance at Normal Incidence
  0.05,                    !- Back Side Solar Reflectance at Normal Incidence
  0.92,                    !- Visible Transmittance at Normal Incidence
  0.05,                    !- Front Side Visible Reflectance at Normal Incidence
  0.05,                    !- Back Side Visible Reflectance at Normal Incidence
  0.00,                    !- Infrared Transmittance at Normal Incidence
  0.90,                    !- Front Side Infrared Hemispherical Emissivity
  0.90,                    !- Back Side Infrared Hemispherical Emissivity
  0.90;                    !- Conductivity {W/m-K}

WindowMaterial:Glazing,
  Diffusing Acrylic Plastic,  !- Name
  SpectralAverage,         !- Optical Data Type
  ,                        !- Window Glass Spectral Data Set Name
  0.0022,                  !- Thickness {m}
  0.90,                    !- Solar Transmittance at Normal Incidence
  0.08,                    !- Front Side Solar Reflectance at Normal Incidence
  0.08,                    !- Back Side Solar Reflectance at Normal Incidence
  0.90,                    !- Visible Transmittance at Normal Incidence
  0.08,                    !- Front Side Visible Reflectance at Normal Incidence
  0.08,                    !- Back Side Visible Reflectance at Normal Incidence
  0.00,                    !- Infrared Transmittance at Normal Incidence
  0.90,                    !- Front Side Infrared Hemispherical Emissivity
  0.90,                    !- Back Side Infrared Hemispherical Emissivity
  0.90;                    !- Conductivity {W/m-K}

Material,
  Very High Reflectivity Surface,  !- Name
  Smooth,                  !- Roughness
  0.0005,                  !- Thickness {m}
  237,                     !- Conductivity {W/m-K}
  2702,                    !- Density {kg/m3}
  903,                     !- Specific Heat {J/kg-K}
  0.90,                    !- Thermal Absorptance
  0.05,                    !- Solar Absorptance
  0.05;                    !- Visible Absorptance


Construction,
  TDD Pipe,                !- Name
  Very High Reflectivity Surface;  !- Outside Layer

Construction,
  TDD Dome,                !- Name
  Clear Acrylic Plastic;   !- Outside Layer

Construction,
  TDD Diffuser,            !- Name
  Diffusing Acrylic Plastic;  !- Outside Layer

WindowMaterial:SimpleGlazingSystem,
  Theoretical Skylight Glazing,  !- Name
  <%= skylight_u %>,       !- U-Factor {W/m2-K}
  <%= skylight_shgc %>;    !- Solar Heat Gain Coefficient

WindowMaterial:Shade,
  Skylight Diffuser,       !- Name
  0.5,                     !- Solar Transmittance
  0.49,                    !- Solar Reflectance
  0.5,                     !- Visible Transmittance
  0.49,                    !- Visible Reflectance
  0.9,                     !- Infrared Hemispherical Emissivity
  0.0,                     !- Infrared Transmittance
  0.0005,                  !- Thickness {m}
  237,                     !- Conductivity {W/m-K}
  0.001,                   !- Shade to Glass Distance {m}
  0.0,                     !- Top Opening Multiplier
  0.0,                     !- Bottom Opening Multiplier
  0.0,                     !- Left-side Opening Multiplier
  0.0,                     !- Right-side Opening Multiplier
  0.0;                     !- Air flow permeability

Construction,
  Exterior Skylight,     !- Name
  Theoretical Skylight Glazing;  !- Outside Layer
!x!
!x!<%# FIX: Not used %>
!x!<% if (skylight_type == "DIFFUSING") %>
!x!
!x!  <% diffuser = "AlwaysOn" %>
!x!
!x!<% elsif (skylight_type == "CLEAR") %>
!x!
!x!  <% diffuser = "AlwaysOff" %>
!x!
!x!<% end %>

WindowMaterial:Shade,
  Window Shade,            !- Name
  <%= window_shade_transmittance %>,  !- Solar Transmittance
  <%= 0.98 - window_shade_transmittance %>,  !- Solar Reflectance
  <%= window_shade_transmittance %>,  !- Visible Transmittance
  <%= 0.98 - window_shade_transmittance %>,  !- Visible Reflectance
  0.9,                     !- Infrared Hemispherical Emissivity
  0.0,                     !- Infrared Transmittance
  0.0005,                  !- Thickness {m}
  237,                     !- Conductivity {W/m-K}
  0.001,                   !- Shade to Glass Distance {m}
  0.0,                     !- Top Opening Multiplier
  0.0,                     !- Bottom Opening Multiplier
  0.0,                     !- Left-side Opening Multiplier
  0.0,                     !- Right-side Opening Multiplier
  <%= window_shade_permeability %>;  !- Air flow permeability


!<<<<<<<<<<<<<<<<<<<<<<<<<<<<<<<<<<<<<<<<<<<<<<<<<<<<<<<<<<<<<<<<<<<<<<<<<<<<<<<<<<<<<<<<<<<<<<<<<<
! added non-adibatic pipe related construction and materials 

Construction,
    Insulated Pipe,          !- Name
    Pipe Insulation,         !- Outside Layer
    Pipe Steel;              !- Layer 2
	
Material,
    Pipe Insulation,         !- Name
    VeryRough,               !- Roughness
    0.029999999944,          !- Thickness {m}
    0.039999999942,          !- Conductivity {W/m-K}
    91.0,                    !- Density {kg/m3}
    836.0;                   !- Specific Heat {J/kg-K}
	
Material,
    Pipe Steel,              !- Name
    Smooth,                  !- Roughness
    3.00E-03,                !- Thickness {m}
    45.31,                   !- Conductivity {W/m-K}
    7833.0,                  !- Density {kg/m3}
    500.0,                   !- Specific Heat {J/kg-K}
    0.9,                     !- Thermal Absorptance
    0.5,                     !- Solar Absorptance
    0.5;                     !- Visible Absorptance	
	
!>>>>>>>>>>>>>>>>>>>>>>>>>>>>>>>>>>>>>>>>>>>>>>>>>>>>>>>>>>>>>>>>>>>>>>>>>>>>>>>>>>>>>>>>>>>>>>>>>>>