Version, 22.2;
!x!<%#INITIALIZE
!x!require "modelkit/energyplus"
!x!
!x!parameter "rack_name"
!x!parameter "case_names"
!x!parameter "rack_type", :default=>"MED-TEMP" # (LOW-TEMP | MED-TEMP | SELF-CONTAINED)
!x!parameter "rack_cop", :default=>2.5
!x!parameter "fan_power", :default=>4500['W']
!x!parameter "heat_rej_location", :default=>"Outdoors"
!x!%>
!x!
!x!<%
!x!case_list = "#{rack_name} Case List"
!x!enduse_subcategory = "#{rack_name} Refrigeration"
!x!%>
!x!
!x!<% if rack_type == "SELF-CONTAINED"
!x!  iv_cond_fan_power_func_temp = ""
!x!else
!x!  iv_cond_fan_power_func_temp = rack_name + " FanFuncTempCurve"
!x!end %>
!-----------------------------------------------------------------
!  | EnergyPlus 					| Manual |
!  | Object Name					| Update |
!-----------------------------------------------------------------
!  | Refrigeration:CompressorRack			|        |
!  | Curve:Quadratic					|        |
!  | OutdoorAir:Node					|        |
!  | Refrigeration:CaseAndWalkInList			|   X    |
!-----------------------------------------------------------------
!

Refrigeration:CompressorRack,
  <%= rack_name %>,        !- Name
  <%= heat_rej_location %>,                !- Heat Rejection Location
  <%= rack_cop %>,                     !- Design Compressor Rack COP {W/W}
  <%= rack_name %> CopFuncTempCurve,  !- Compressor Rack COP Function of Temperature Curve Name
  <%= fan_power %>,                    !- Design Condenser Fan Power {W}
  <%= iv_cond_fan_power_func_temp %>,  !- Condenser Fan Power Function of Temperature Curve Name
  AirCooled,               !- Condenser Type
  ,                        !- Water-Cooled Condenser Inlet Node Name
  ,                        !- Water-Cooled Condenser Outlet Node Name
  ,                        !- Water-Cooled Loop Flow Type
  ,                        !- Water-Cooled Condenser Outlet Temperature Schedule Name
  ,                        !- Water-Cooled Condenser Design Flow Rate {m3/s}
  ,                        !- Water-Cooled Condenser Maximum Flow Rate {m3/s}
  ,                        !- Water-Cooled Condenser Maximum Water Outlet Temperature {C}
  ,                        !- Water-Cooled Condenser Minimum Water Inlet Temperature {C}
  ,                        !- Evaporative Condenser Availability Schedule Name
  ,                        !- Evaporative Condenser Effectiveness {dimensionless}
  ,                        !- Evaporative Condenser Air Flow Rate {m3/s}
  ,                        !- Basin Heater Capacity {W/K}
  ,                        !- Basin Heater Setpoint Temperature {C}
  ,                        !- Design Evaporative Condenser Water Pump Power {W}
  ,                        !- Evaporative Water Supply Tank Name
  <%= rack_name %> CondenserNode,     !- Condenser Air Inlet Node Name
  <%= enduse_subcategory %>,           !- End-Use Subcategory
  <%= case_list %>;  !- Refrigeration Case Name or WalkIn Name or CaseAndWalkInList Name

!x!<% if (rack_type == "LOW-TEMP") %>
Curve:Quadratic,
  <%= rack_name %> FanFuncTempCurve,  !- Name
  0.0000,                  !- Coefficient1 Constant
  0.0286,                  !- Coefficient2 x
  0.0000,                  !- Coefficient3 x**2
  0.0000,                  !- Minimum Value of x
  35.0000;                 !- Maximum Value of x

!x!<% elsif (rack_type == "MED-TEMP") %>
Curve:Quadratic,
  <%= rack_name %> FanFuncTempCurve,  !- Name
  0.3000,                  !- Coefficient1 Constant
  0.0200,                  !- Coefficient2 x
  0.0000,                  !- Coefficient3 x**2
  10.0000,                 !- Minimum Value of x
  35.0000;                 !- Maximum Value of x

!x!<% elsif (rack_type == "SELF-CONTAINED") %>
Curve:Quadratic,
  <%= rack_name %> FanFuncTempCurve,  !- Name
  1.0000,                  !- Coefficient1 Constant
  0.0000,                  !- Coefficient2 x
  0.0000,                  !- Coefficient3 x**2
  10.0000,                 !- Minimum Value of x
  35.0000;                 !- Maximum Value of x
!x!<% end %>

!x!<% if (rack_type == "SELF-CONTAINED") %>
Curve:Quadratic,
  <%= rack_name %> CopFuncTempCurve,  !- Name
  1.0000,                  !- Coefficient1 Constant
  0.0000,                  !- Coefficient2 x
  0.0000,                  !- Coefficient3 x**2
  0.0000,                  !- Minimum Value of x
  50.0000;                 !- Maximum Value of x

!x!<% else %>
Curve:Quadratic,
  <%= rack_name %> CopFuncTempCurve,  !- Name
  1.7603,                  !- Coefficient1 Constant
  -0.0377,                 !- Coefficient2 x
  0.0004,                  !- Coefficient3 x**2
  10.0000,                 !- Minimum Value of x
  35.0000;                 !- Maximum Value of x
!x!<% end %>

OutdoorAir:Node,
  <%= rack_name %> CondenserNode;     !- Name

!===manual===
!x!Refrigeration:CaseAndWalkInList,
!x!  <%= case_list %>,   !- Name
!x!<% EnergyPlus.each(case_names) do |case_name| %>
!x!  <%= case_name %>,  !- Case or WalkIn Name
!x!<% end %>
