  Version,25.1;

  GlobalGeometryRules,
    UpperLeftCorner,         !- Starting Vertex Position
    Counterclockwise,        !- Vertex Entry Direction
    Relative,                !- Coordinate System
    Relative,                !- Daylighting Reference Point Coordinate System
    Relative;                !- Rectangular Surface Coordinate System

  Zone,
    Classroom EL1 Spc (G.1), !- Name
    ,                        !- Direction of Relative North {deg}
    ,                        !- X Origin {m}
    ,                        !- Y Origin {m}
    ,                        !- Z Origin {m}
    ,                        !- Type
    1;                       !- Multiplier

  Zone,
    CrawlSpace EL1 CrS (G.1),!- Name
    ,                        !- Direction of Relative North {deg}
    ,                        !- X Origin {m}
    ,                        !- Y Origin {m}
    ,                        !- Z Origin {m}
    ,                        !- Type
    1;                       !- Multiplier

  Zone,
    Plenum EL1 Plnm (G.2),   !- Name
    ,                        !- Direction of Relative North {deg}
    ,                        !- X Origin {m}
    ,                        !- Y Origin {m}
    ,                        !- Z Origin {m}
    ,                        !- Type
    1;                       !- Multiplier

  BuildingSurface:Detailed,
    EL1 Ceiling (G.1.I2)-mirror,  !- Name
    Floor,                   !- Surface Type
    Interior Floor,          !- Construction Name
    Plenum EL1 Plnm (G.2),   !- Zone Name
    ,                        !- Space Name
    Surface,                 !- Outside Boundary Condition
    EL1 Ceiling (G.1.I2)-mirror Reversed,  !- Outside Boundary Condition Object
    NoSun,                   !- Sun Exposure
    NoWind,                  !- Wind Exposure
    ,                        !- View Factor to Ground
    ,                        !- Number of Vertices
    12.20720952,7.3152,2.7432,  !- X,Y,Z ==> Vertex 1 {m}
    12.20720952,0,2.7432,  !- X,Y,Z ==> Vertex 2 {m}
    0,0,2.7432,  !- X,Y,Z ==> Vertex 3 {m}
    0,7.3152,2.7432;  !- X,Y,Z ==> Vertex 4 {m}

  BuildingSurface:Detailed,
    EL1 Ceiling (G.1.I2)-mirror Reversed,  !- Name
    Ceiling,                 !- Surface Type
    Radiant Interior Ceiling,!- Construction Name
    Classroom EL1 Spc (G.1), !- Zone Name
    ,                        !- Space Name
    Surface,                 !- Outside Boundary Condition
    EL1 Ceiling (G.1.I2)-mirror,  !- Outside Boundary Condition Object
    NoSun,                   !- Sun Exposure
    NoWind,                  !- Wind Exposure
    ,                        !- View Factor to Ground
    ,                        !- Number of Vertices
    12.20720952,0,2.7432,  !- X,Y,Z ==> Vertex 1 {m}
    12.20720952,7.3152,2.7432,  !- X,Y,Z ==> Vertex 2 {m}
    0,7.3152,2.7432,  !- X,Y,Z ==> Vertex 3 {m}
    0,0,2.7432;  !- X,Y,Z ==> Vertex 4 {m}

  BuildingSurface:Detailed,
    EL1 East Wall (G.1.E2),  !- Name
    Wall,                    !- Surface Type
    Exterior Wall,           !- Construction Name
    Classroom EL1 Spc (G.1), !- Zone Name
    ,                        !- Space Name
    Outdoors,                !- Outside Boundary Condition
    ,                        !- Outside Boundary Condition Object
    SunExposed,              !- Sun Exposure
    WindExposed,             !- Wind Exposure
    ,                        !- View Factor to Ground
    ,                        !- Number of Vertices
    12.20720952,0,2.7432,  !- X,Y,Z ==> Vertex 1 {m}
    12.20720952,0,0,  !- X,Y,Z ==> Vertex 2 {m}
    12.20720952,7.3152,0,  !- X,Y,Z ==> Vertex 3 {m}
    12.20720952,7.3152,2.7432;  !- X,Y,Z ==> Vertex 4 {m}

  BuildingSurface:Detailed,
    EL1 East Wall (G.1.E6),  !- Name
    Wall,                    !- Surface Type
    Exterior Wall,           !- Construction Name
    CrawlSpace EL1 CrS (G.1),!- Zone Name
    ,                        !- Space Name
    Outdoors,                !- Outside Boundary Condition
    ,                        !- Outside Boundary Condition Object
    SunExposed,              !- Sun Exposure
    WindExposed,             !- Wind Exposure
    ,                        !- View Factor to Ground
    ,                        !- Number of Vertices
    12.20720952,0,0,  !- X,Y,Z ==> Vertex 1 {m}
    12.20720952,0,-0.9144,  !- X,Y,Z ==> Vertex 2 {m}
    12.20720952,7.3152,-0.9144,  !- X,Y,Z ==> Vertex 3 {m}
    12.20720952,7.3152,0;  !- X,Y,Z ==> Vertex 4 {m}

  BuildingSurface:Detailed,
    EL1 East Wall (G.2.E10), !- Name
    Wall,                    !- Surface Type
    Exterior Wall,           !- Construction Name
    Plenum EL1 Plnm (G.2),   !- Zone Name
    ,                        !- Space Name
    Outdoors,                !- Outside Boundary Condition
    ,                        !- Outside Boundary Condition Object
    SunExposed,              !- Sun Exposure
    WindExposed,             !- Wind Exposure
    ,                        !- View Factor to Ground
    ,                        !- Number of Vertices
    12.20720952,0,3.6576,  !- X,Y,Z ==> Vertex 1 {m}
    12.20720952,0,2.7432,  !- X,Y,Z ==> Vertex 2 {m}
    12.20720952,7.3152,2.7432,  !- X,Y,Z ==> Vertex 3 {m}
    12.20720952,7.3152,3.6576;  !- X,Y,Z ==> Vertex 4 {m}

  BuildingSurface:Detailed,
    EL1 Flr (G.1.I1),        !- Name
    Floor,                   !- Surface Type
    Interior Floor,          !- Construction Name
    Classroom EL1 Spc (G.1), !- Zone Name
    ,                        !- Space Name
    Surface,                 !- Outside Boundary Condition
    EL1 Flr (G.1.I1) Reversed,  !- Outside Boundary Condition Object
    NoSun,                   !- Sun Exposure
    NoWind,                  !- Wind Exposure
    ,                        !- View Factor to Ground
    ,                        !- Number of Vertices
    12.20720952,7.3152,0,  !- X,Y,Z ==> Vertex 1 {m}
    12.20720952,0,0,  !- X,Y,Z ==> Vertex 2 {m}
    0,0,0,  !- X,Y,Z ==> Vertex 3 {m}
    0,7.3152,0;  !- X,Y,Z ==> Vertex 4 {m}

  BuildingSurface:Detailed,
    EL1 Flr (G.1.I1) Reversed,  !- Name
    Ceiling,                 !- Surface Type
    Radiant Interior Ceiling,!- Construction Name
    CrawlSpace EL1 CrS (G.1),!- Zone Name
    ,                        !- Space Name
    Surface,                 !- Outside Boundary Condition
    EL1 Flr (G.1.I1),        !- Outside Boundary Condition Object
    NoSun,                   !- Sun Exposure
    NoWind,                  !- Wind Exposure
    ,                        !- View Factor to Ground
    ,                        !- Number of Vertices
    12.20720952,0,0,  !- X,Y,Z ==> Vertex 1 {m}
    12.20720952,7.3152,0,  !- X,Y,Z ==> Vertex 2 {m}
    0,7.3152,0,  !- X,Y,Z ==> Vertex 3 {m}
    0,0,0;  !- X,Y,Z ==> Vertex 4 {m}

  BuildingSurface:Detailed,
    EL1 Flr (G.1.U1),        !- Name
    Floor,                   !- Surface Type
    EL1 Flr (G.1.U1) SlabOnOrBelowGradeF073,  !- Construction Name
    CrawlSpace EL1 CrS (G.1),!- Zone Name
    ,                        !- Space Name
    GroundFCfactorMethod,    !- Outside Boundary Condition
    ,                        !- Outside Boundary Condition Object
    NoSun,                   !- Sun Exposure
    NoWind,                  !- Wind Exposure
    ,                        !- View Factor to Ground
    ,                        !- Number of Vertices
    12.20720952,7.3152,-0.9144,  !- X,Y,Z ==> Vertex 1 {m}
    12.20720952,0,-0.9144,  !- X,Y,Z ==> Vertex 2 {m}
    0,0,-0.9144,  !- X,Y,Z ==> Vertex 3 {m}
    0,7.3152,-0.9144;  !- X,Y,Z ==> Vertex 4 {m}

  BuildingSurface:Detailed,
    EL1 North Wall (G.1.E3), !- Name
    Wall,                    !- Surface Type
    Exterior Wall,           !- Construction Name
    Classroom EL1 Spc (G.1), !- Zone Name
    ,                        !- Space Name
    Outdoors,                !- Outside Boundary Condition
    ,                        !- Outside Boundary Condition Object
    SunExposed,              !- Sun Exposure
    WindExposed,             !- Wind Exposure
    ,                        !- View Factor to Ground
    ,                        !- Number of Vertices
    12.20720952,7.3152,2.7432,  !- X,Y,Z ==> Vertex 1 {m}
    12.20720952,7.3152,0,  !- X,Y,Z ==> Vertex 2 {m}
    0,7.3152,0,  !- X,Y,Z ==> Vertex 3 {m}
    0,7.3152,2.7432;  !- X,Y,Z ==> Vertex 4 {m}

  BuildingSurface:Detailed,
    EL1 North Wall (G.1.E7), !- Name
    Wall,                    !- Surface Type
    Exterior Wall,           !- Construction Name
    CrawlSpace EL1 CrS (G.1),!- Zone Name
    ,                        !- Space Name
    Outdoors,                !- Outside Boundary Condition
    ,                        !- Outside Boundary Condition Object
    SunExposed,              !- Sun Exposure
    WindExposed,             !- Wind Exposure
    ,                        !- View Factor to Ground
    ,                        !- Number of Vertices
    12.20720952,7.3152,0,  !- X,Y,Z ==> Vertex 1 {m}
    12.20720952,7.3152,-0.9144,  !- X,Y,Z ==> Vertex 2 {m}
    0,7.3152,-0.9144,  !- X,Y,Z ==> Vertex 3 {m}
    0,7.3152,0;  !- X,Y,Z ==> Vertex 4 {m}

  BuildingSurface:Detailed,
    EL1 North Wall (G.2.E11),!- Name
    Wall,                    !- Surface Type
    Exterior Wall,           !- Construction Name
    Plenum EL1 Plnm (G.2),   !- Zone Name
    ,                        !- Space Name
    Outdoors,                !- Outside Boundary Condition
    ,                        !- Outside Boundary Condition Object
    SunExposed,              !- Sun Exposure
    WindExposed,             !- Wind Exposure
    ,                        !- View Factor to Ground
    ,                        !- Number of Vertices
    12.20720952,7.3152,3.6576,  !- X,Y,Z ==> Vertex 1 {m}
    12.20720952,7.3152,2.7432,  !- X,Y,Z ==> Vertex 2 {m}
    0,7.3152,2.7432,  !- X,Y,Z ==> Vertex 3 {m}
    0,7.3152,3.6576;  !- X,Y,Z ==> Vertex 4 {m}

  BuildingSurface:Detailed,
    EL1 Roof (G.2.E13),      !- Name
    Roof,                    !- Surface Type
    Exterior Roof,           !- Construction Name
    Plenum EL1 Plnm (G.2),   !- Zone Name
    ,                        !- Space Name
    Outdoors,                !- Outside Boundary Condition
    ,                        !- Outside Boundary Condition Object
    SunExposed,              !- Sun Exposure
    WindExposed,             !- Wind Exposure
    ,                        !- View Factor to Ground
    ,                        !- Number of Vertices
    12.20720952,0,3.6576,  !- X,Y,Z ==> Vertex 1 {m}
    12.20720952,7.3152,3.6576,  !- X,Y,Z ==> Vertex 2 {m}
    0,7.3152,3.6576,  !- X,Y,Z ==> Vertex 3 {m}
    0,0,3.6576;  !- X,Y,Z ==> Vertex 4 {m}

  BuildingSurface:Detailed,
    EL1 South Wall (G.1.E1), !- Name
    Wall,                    !- Surface Type
    Exterior Wall,           !- Construction Name
    Classroom EL1 Spc (G.1), !- Zone Name
    ,                        !- Space Name
    Outdoors,                !- Outside Boundary Condition
    ,                        !- Outside Boundary Condition Object
    SunExposed,              !- Sun Exposure
    WindExposed,             !- Wind Exposure
    ,                        !- View Factor to Ground
    ,                        !- Number of Vertices
    0,0,2.7432,  !- X,Y,Z ==> Vertex 1 {m}
    0,0,0,  !- X,Y,Z ==> Vertex 2 {m}
    12.20720952,0,0,  !- X,Y,Z ==> Vertex 3 {m}
    12.20720952,0,2.7432;  !- X,Y,Z ==> Vertex 4 {m}

  BuildingSurface:Detailed,
    EL1 South Wall (G.1.E5), !- Name
    Wall,                    !- Surface Type
    Exterior Wall,           !- Construction Name
    CrawlSpace EL1 CrS (G.1),!- Zone Name
    ,                        !- Space Name
    Outdoors,                !- Outside Boundary Condition
    ,                        !- Outside Boundary Condition Object
    SunExposed,              !- Sun Exposure
    WindExposed,             !- Wind Exposure
    ,                        !- View Factor to Ground
    ,                        !- Number of Vertices
    0,0,0,  !- X,Y,Z ==> Vertex 1 {m}
    0,0,-0.9144,  !- X,Y,Z ==> Vertex 2 {m}
    12.20720952,0,-0.9144,  !- X,Y,Z ==> Vertex 3 {m}
    12.20720952,0,0;  !- X,Y,Z ==> Vertex 4 {m}

  BuildingSurface:Detailed,
    EL1 South Wall (G.2.E9), !- Name
    Wall,                    !- Surface Type
    Exterior Wall,           !- Construction Name
    Plenum EL1 Plnm (G.2),   !- Zone Name
    ,                        !- Space Name
    Outdoors,                !- Outside Boundary Condition
    ,                        !- Outside Boundary Condition Object
    SunExposed,              !- Sun Exposure
    WindExposed,             !- Wind Exposure
    ,                        !- View Factor to Ground
    ,                        !- Number of Vertices
    0,0,3.6576,  !- X,Y,Z ==> Vertex 1 {m}
    0,0,2.7432,  !- X,Y,Z ==> Vertex 2 {m}
    12.20720952,0,2.7432,  !- X,Y,Z ==> Vertex 3 {m}
    12.20720952,0,3.6576;  !- X,Y,Z ==> Vertex 4 {m}

  BuildingSurface:Detailed,
    EL1 West Wall (G.1.E4),  !- Name
    Wall,                    !- Surface Type
    Exterior Wall,           !- Construction Name
    Classroom EL1 Spc (G.1), !- Zone Name
    ,                        !- Space Name
    Outdoors,                !- Outside Boundary Condition
    ,                        !- Outside Boundary Condition Object
    SunExposed,              !- Sun Exposure
    WindExposed,             !- Wind Exposure
    ,                        !- View Factor to Ground
    ,                        !- Number of Vertices
    0,7.3152,2.7432,  !- X,Y,Z ==> Vertex 1 {m}
    0,7.3152,0,  !- X,Y,Z ==> Vertex 2 {m}
    0,0,0,  !- X,Y,Z ==> Vertex 3 {m}
    0,0,2.7432;  !- X,Y,Z ==> Vertex 4 {m}

  BuildingSurface:Detailed,
    EL1 West Wall (G.1.E8),  !- Name
    Wall,                    !- Surface Type
    Exterior Wall,           !- Construction Name
    CrawlSpace EL1 CrS (G.1),!- Zone Name
    ,                        !- Space Name
    Outdoors,                !- Outside Boundary Condition
    ,                        !- Outside Boundary Condition Object
    SunExposed,              !- Sun Exposure
    WindExposed,             !- Wind Exposure
    ,                        !- View Factor to Ground
    ,                        !- Number of Vertices
    0,7.3152,0,  !- X,Y,Z ==> Vertex 1 {m}
    0,7.3152,-0.9144,  !- X,Y,Z ==> Vertex 2 {m}
    0,0,-0.9144,  !- X,Y,Z ==> Vertex 3 {m}
    0,0,0;  !- X,Y,Z ==> Vertex 4 {m}

  BuildingSurface:Detailed,
    EL1 West Wall (G.2.E12), !- Name
    Wall,                    !- Surface Type
    Exterior Wall,           !- Construction Name
    Plenum EL1 Plnm (G.2),   !- Zone Name
    ,                        !- Space Name
    Outdoors,                !- Outside Boundary Condition
    ,                        !- Outside Boundary Condition Object
    SunExposed,              !- Sun Exposure
    WindExposed,             !- Wind Exposure
    ,                        !- View Factor to Ground
    ,                        !- Number of Vertices
    0,7.3152,3.6576,  !- X,Y,Z ==> Vertex 1 {m}
    0,7.3152,2.7432,  !- X,Y,Z ==> Vertex 2 {m}
    0,0,2.7432,  !- X,Y,Z ==> Vertex 3 {m}
    0,0,3.6576;  !- X,Y,Z ==> Vertex 4 {m}

  FenestrationSurface:Detailed,
    EL1 East Door (G.1.E2.D1),  !- Name
    Door,                    !- Surface Type
    Swinging Door,           !- Construction Name
    EL1 East Wall (G.1.E2),  !- Building Surface Name
    ,                        !- Outside Boundary Condition Object
    ,                        !- View Factor to Ground
    ,                        !- Frame and Divider Name
    ,                        !- Multiplier
    ,                        !- Number of Vertices
    12.20720952,3.2004,2.04216,  !- X,Y,Z ==> Vertex 1 {m}
    12.20720952,3.2004,0,  !- X,Y,Z ==> Vertex 2 {m}
    12.20720952,4.1148,0,  !- X,Y,Z ==> Vertex 3 {m}
    12.20720952,4.1148,2.04216;  !- X,Y,Z ==> Vertex 4 {m}

  FenestrationSurface:Detailed,
    EL1 East Win (G.1.E2.W1),!- Name
    Window,                  !- Surface Type
    Exterior Window,         !- Construction Name
    EL1 East Wall (G.1.E2),  !- Building Surface Name
    ,                        !- Outside Boundary Condition Object
    ,                        !- View Factor to Ground
    ,                        !- Frame and Divider Name
    ,                        !- Multiplier
    ,                        !- Number of Vertices
    12.20720952,0.8388096,2.1336,  !- X,Y,Z ==> Vertex 1 {m}
    12.20720952,0.8388096,0.9144,  !- X,Y,Z ==> Vertex 2 {m}
    12.20720952,2.0567904,0.9144,  !- X,Y,Z ==> Vertex 3 {m}
    12.20720952,2.0567904,2.1336;  !- X,Y,Z ==> Vertex 4 {m}

  FenestrationSurface:Detailed,
    EL1 East Win (G.1.E2.W2),!- Name
    Window,                  !- Surface Type
    Exterior Window,         !- Construction Name
    EL1 East Wall (G.1.E2),  !- Building Surface Name
    ,                        !- Outside Boundary Condition Object
    ,                        !- View Factor to Ground
    ,                        !- Frame and Divider Name
    ,                        !- Multiplier
    ,                        !- Number of Vertices
    12.20720952,5.2584096,2.1336,  !- X,Y,Z ==> Vertex 1 {m}
    12.20720952,5.2584096,0.9144,  !- X,Y,Z ==> Vertex 2 {m}
    12.20720952,6.4763904,0.9144,  !- X,Y,Z ==> Vertex 3 {m}
    12.20720952,6.4763904,2.1336;  !- X,Y,Z ==> Vertex 4 {m}

  FenestrationSurface:Detailed,
    EL1 West Door (G.1.E4.D1),  !- Name
    Door,                    !- Surface Type
    Swinging Door,           !- Construction Name
    EL1 West Wall (G.1.E4),  !- Building Surface Name
    ,                        !- Outside Boundary Condition Object
    ,                        !- View Factor to Ground
    ,                        !- Frame and Divider Name
    ,                        !- Multiplier
    ,                        !- Number of Vertices
    0,4.1148,2.04216,  !- X,Y,Z ==> Vertex 1 {m}
    0,4.1148,-5.8891932e-47,  !- X,Y,Z ==> Vertex 2 {m}
    0,3.2004,5.8891932e-47,  !- X,Y,Z ==> Vertex 3 {m}
    0,3.2004,2.04216;  !- X,Y,Z ==> Vertex 4 {m}

  FenestrationSurface:Detailed,
    EL1 West Win (G.1.E4.W1),!- Name
    Window,                  !- Surface Type
    Exterior Window,         !- Construction Name
    EL1 West Wall (G.1.E4),  !- Building Surface Name
    ,                        !- Outside Boundary Condition Object
    ,                        !- View Factor to Ground
    ,                        !- Frame and Divider Name
    ,                        !- Multiplier
    ,                        !- Number of Vertices
    0,6.4763904,2.1336,  !- X,Y,Z ==> Vertex 1 {m}
    0,6.4763904,0.9144,  !- X,Y,Z ==> Vertex 2 {m}
    0,5.2584096,0.9144,  !- X,Y,Z ==> Vertex 3 {m}
    0,5.2584096,2.1336;  !- X,Y,Z ==> Vertex 4 {m}

  FenestrationSurface:Detailed,
    EL1 West Win (G.1.E4.W2),!- Name
    Window,                  !- Surface Type
    Exterior Window,         !- Construction Name
    EL1 West Wall (G.1.E4),  !- Building Surface Name
    ,                        !- Outside Boundary Condition Object
    ,                        !- View Factor to Ground
    ,                        !- Frame and Divider Name
    ,                        !- Multiplier
    ,                        !- Number of Vertices
    0,2.0567904,2.1336,  !- X,Y,Z ==> Vertex 1 {m}
    0,2.0567904,0.9144,  !- X,Y,Z ==> Vertex 2 {m}
    0,0.8388096,0.9144,  !- X,Y,Z ==> Vertex 3 {m}
    0,0.8388096,2.1336;  !- X,Y,Z ==> Vertex 4 {m}

  Construction:FfactorGroundFloor,
    EL1 Flr (G.1.U1) SlabOnOrBelowGradeF073,  !- Name
    1.26343630645111,        !- F-Factor {W/m-K}
    89.298179080704,         !- Area {m2}
    39.04488;                !- PerimeterExposed {m}

