  Version,25.2;

  GlobalGeometryRules,
    UpperLeftCorner,         !- Starting Vertex Position
    Counterclockwise,        !- Vertex Entry Direction
    Relative,                !- Coordinate System
    Relative,                !- Daylighting Reference Point Coordinate System
    Relative;                !- Rectangular Surface Coordinate System

  Zone,
    Classroom E1 West Perim (G.W1),  !- Name
    ,                        !- Direction of Relative North {deg}
    ,                        !- X Origin {m}
    ,                        !- Y Origin {m}
    ,                        !- Z Origin {m}
    ,                        !- Type
    1;                       !- Multiplier

  Zone,
    Classroom E2 North Perim (G.N3),  !- Name
    ,                        !- Direction of Relative North {deg}
    ,                        !- X Origin {m}
    ,                        !- Y Origin {m}
    ,                        !- Z Origin {m}
    ,                        !- Type
    1;                       !- Multiplier

  Zone,
    Classroom E2 South Perim (G.S2),  !- Name
    ,                        !- Direction of Relative North {deg}
    ,                        !- X Origin {m}
    ,                        !- Y Origin {m}
    ,                        !- Z Origin {m}
    ,                        !- Type
    1;                       !- Multiplier

  Zone,
    Classroom E2 West Perim (G.W1),  !- Name
    ,                        !- Direction of Relative North {deg}
    ,                        !- X Origin {m}
    ,                        !- Y Origin {m}
    ,                        !- Z Origin {m}
    ,                        !- Type
    1;                       !- Multiplier

  Zone,
    Classroom E4 Core (G.C6),!- Name
    ,                        !- Direction of Relative North {deg}
    ,                        !- X Origin {m}
    ,                        !- Y Origin {m}
    ,                        !- Z Origin {m}
    ,                        !- Type
    1;                       !- Multiplier

  Zone,
    Classroom E4 East Perim (G.E2),  !- Name
    ,                        !- Direction of Relative North {deg}
    ,                        !- X Origin {m}
    ,                        !- Y Origin {m}
    ,                        !- Z Origin {m}
    ,                        !- Type
    1;                       !- Multiplier

  Zone,
    Classroom E4 North Perim (G.N3),  !- Name
    ,                        !- Direction of Relative North {deg}
    ,                        !- X Origin {m}
    ,                        !- Y Origin {m}
    ,                        !- Z Origin {m}
    ,                        !- Type
    1;                       !- Multiplier

  Zone,
    Classroom E4 South Perim (G.S1),  !- Name
    ,                        !- Direction of Relative North {deg}
    ,                        !- X Origin {m}
    ,                        !- Y Origin {m}
    ,                        !- Z Origin {m}
    ,                        !- Type
    1;                       !- Multiplier

  Zone,
    Classroom E4 West Perim (G.W4),  !- Name
    ,                        !- Direction of Relative North {deg}
    ,                        !- X Origin {m}
    ,                        !- Y Origin {m}
    ,                        !- Z Origin {m}
    ,                        !- Type
    1;                       !- Multiplier

  Zone,
    Computer Classroom E4 Core Spc (G.C5),  !- Name
    ,                        !- Direction of Relative North {deg}
    ,                        !- X Origin {m}
    ,                        !- Y Origin {m}
    ,                        !- Z Origin {m}
    ,                        !- Type
    1;                       !- Multiplier

  Zone,
    Dining E3 SW Perim (G.SW1),  !- Name
    ,                        !- Direction of Relative North {deg}
    ,                        !- X Origin {m}
    ,                        !- Y Origin {m}
    ,                        !- Z Origin {m}
    ,                        !- Type
    1;                       !- Multiplier

  Zone,
    E2 North Perim Plnm (G.N6),  !- Name
    ,                        !- Direction of Relative North {deg}
    ,                        !- X Origin {m}
    ,                        !- Y Origin {m}
    ,                        !- Z Origin {m}
    ,                        !- Type
    1;                       !- Multiplier

  Zone,
    E2 South Perim Plnm (G.S5),  !- Name
    ,                        !- Direction of Relative North {deg}
    ,                        !- X Origin {m}
    ,                        !- Y Origin {m}
    ,                        !- Z Origin {m}
    ,                        !- Type
    1;                       !- Multiplier

  Zone,
    E2 West Perim Plnm (G.W4),  !- Name
    ,                        !- Direction of Relative North {deg}
    ,                        !- X Origin {m}
    ,                        !- Y Origin {m}
    ,                        !- Z Origin {m}
    ,                        !- Type
    1;                       !- Multiplier

  Zone,
    E4 Core Plnm (G.C11),    !- Name
    ,                        !- Direction of Relative North {deg}
    ,                        !- X Origin {m}
    ,                        !- Y Origin {m}
    ,                        !- Z Origin {m}
    ,                        !- Type
    1;                       !- Multiplier

  Zone,
    E4 Core Plnm (G.C12),    !- Name
    ,                        !- Direction of Relative North {deg}
    ,                        !- X Origin {m}
    ,                        !- Y Origin {m}
    ,                        !- Z Origin {m}
    ,                        !- Type
    1;                       !- Multiplier

  Zone,
    E4 East Perim Plnm (G.E8),  !- Name
    ,                        !- Direction of Relative North {deg}
    ,                        !- X Origin {m}
    ,                        !- Y Origin {m}
    ,                        !- Z Origin {m}
    ,                        !- Type
    1;                       !- Multiplier

  Zone,
    E4 North Perim Plnm (G.N9),  !- Name
    ,                        !- Direction of Relative North {deg}
    ,                        !- X Origin {m}
    ,                        !- Y Origin {m}
    ,                        !- Z Origin {m}
    ,                        !- Type
    1;                       !- Multiplier

  Zone,
    E4 South Perim Plnm (G.S7),  !- Name
    ,                        !- Direction of Relative North {deg}
    ,                        !- X Origin {m}
    ,                        !- Y Origin {m}
    ,                        !- Z Origin {m}
    ,                        !- Type
    1;                       !- Multiplier

  Zone,
    E4 West Perim Plnm (G.W10),  !- Name
    ,                        !- Direction of Relative North {deg}
    ,                        !- X Origin {m}
    ,                        !- Y Origin {m}
    ,                        !- Z Origin {m}
    ,                        !- Type
    1;                       !- Multiplier

  Zone,
    Gymnasium E17 West Perim (G.W1),  !- Name
    ,                        !- Direction of Relative North {deg}
    ,                        !- X Origin {m}
    ,                        !- Y Origin {m}
    ,                        !- Z Origin {m}
    ,                        !- Type
    1;                       !- Multiplier

  Zone,
    Kitchen E3 NE Perim (G.NE2),  !- Name
    ,                        !- Direction of Relative North {deg}
    ,                        !- X Origin {m}
    ,                        !- Y Origin {m}
    ,                        !- Z Origin {m}
    ,                        !- Type
    1;                       !- Multiplier

  BuildingSurface:Detailed,
    E1 East Wall (G.W1.I1),  !- Name
    Wall,                    !- Surface Type
    Interior Wall,           !- Construction Name
    Classroom E1 West Perim (G.W1),  !- Zone Name
    ,                        !- Space Name
    Surface,                 !- Outside Boundary Condition
    E1 East Wall (G.W1.I1) Reversed,  !- Outside Boundary Condition Object
    NoSun,                   !- Sun Exposure
    NoWind,                  !- Wind Exposure
    ,                        !- View Factor to Ground
    ,                        !- Number of Vertices
    13.59411048,16.45161048,3.9624,  !- X,Y,Z ==> Vertex 1 {m}
    13.59411048,16.45161048,2.7432,  !- X,Y,Z ==> Vertex 2 {m}
    13.59411048,25.63371048,2.7432,  !- X,Y,Z ==> Vertex 3 {m}
    13.59411048,25.63371048,3.9624;  !- X,Y,Z ==> Vertex 4 {m}

  BuildingSurface:Detailed,
    E1 East Wall (G.W1.I1) Reversed,  !- Name
    Wall,                    !- Surface Type
    Interior Wall,           !- Construction Name
    E2 North Perim Plnm (G.N6),  !- Zone Name
    ,                        !- Space Name
    Surface,                 !- Outside Boundary Condition
    E1 East Wall (G.W1.I1),  !- Outside Boundary Condition Object
    NoSun,                   !- Sun Exposure
    NoWind,                  !- Wind Exposure
    ,                        !- View Factor to Ground
    ,                        !- Number of Vertices
    13.59411048,25.63371048,3.9624,  !- X,Y,Z ==> Vertex 1 {m}
    13.59411048,25.63371048,2.7432,  !- X,Y,Z ==> Vertex 2 {m}
    13.59411048,16.45161048,2.7432,  !- X,Y,Z ==> Vertex 3 {m}
    13.59411048,16.45161048,3.9624;  !- X,Y,Z ==> Vertex 4 {m}

  BuildingSurface:Detailed,
    E1 Flr (G.W1.U1),        !- Name
    Floor,                   !- Surface Type
    E1 Flr (G.W1.U1) SlabOnOrBelowGradeF073,  !- Construction Name
    Classroom E1 West Perim (G.W1),  !- Zone Name
    ,                        !- Space Name
    GroundFCfactorMethod,    !- Outside Boundary Condition
    ,                        !- Outside Boundary Condition Object
    NoSun,                   !- Sun Exposure
    NoWind,                  !- Wind Exposure
    ,                        !- View Factor to Ground
    ,                        !- Number of Vertices
    13.59411048,25.63371048,0,  !- X,Y,Z ==> Vertex 1 {m}
    13.59411048,0,0,  !- X,Y,Z ==> Vertex 2 {m}
    0,0,0,  !- X,Y,Z ==> Vertex 3 {m}
    0,25.63371048,0;  !- X,Y,Z ==> Vertex 4 {m}

  BuildingSurface:Detailed,
    E1 North Wall (G.W1.E2), !- Name
    Wall,                    !- Surface Type
    Exterior Wall,           !- Construction Name
    Classroom E1 West Perim (G.W1),  !- Zone Name
    ,                        !- Space Name
    Outdoors,                !- Outside Boundary Condition
    ,                        !- Outside Boundary Condition Object
    SunExposed,              !- Sun Exposure
    WindExposed,             !- Wind Exposure
    ,                        !- View Factor to Ground
    ,                        !- Number of Vertices
    13.59411048,25.63371048,3.9624,  !- X,Y,Z ==> Vertex 1 {m}
    13.59411048,25.63371048,0,  !- X,Y,Z ==> Vertex 2 {m}
    0,25.63371048,0,  !- X,Y,Z ==> Vertex 3 {m}
    0,25.63371048,3.9624;  !- X,Y,Z ==> Vertex 4 {m}

  BuildingSurface:Detailed,
    E1 Roof (G.W1.E4),       !- Name
    Roof,                    !- Surface Type
    Exterior Roof,           !- Construction Name
    Classroom E1 West Perim (G.W1),  !- Zone Name
    ,                        !- Space Name
    Outdoors,                !- Outside Boundary Condition
    ,                        !- Outside Boundary Condition Object
    SunExposed,              !- Sun Exposure
    WindExposed,             !- Wind Exposure
    ,                        !- View Factor to Ground
    ,                        !- Number of Vertices
    13.59411048,0,3.9624,  !- X,Y,Z ==> Vertex 1 {m}
    13.59411048,25.63371048,3.9624,  !- X,Y,Z ==> Vertex 2 {m}
    0,25.63371048,3.9624,  !- X,Y,Z ==> Vertex 3 {m}
    0,0,3.9624;  !- X,Y,Z ==> Vertex 4 {m}

  BuildingSurface:Detailed,
    E1 South Wall (G.W1.E1), !- Name
    Wall,                    !- Surface Type
    Exterior Wall,           !- Construction Name
    Classroom E1 West Perim (G.W1),  !- Zone Name
    ,                        !- Space Name
    Outdoors,                !- Outside Boundary Condition
    ,                        !- Outside Boundary Condition Object
    SunExposed,              !- Sun Exposure
    WindExposed,             !- Wind Exposure
    ,                        !- View Factor to Ground
    ,                        !- Number of Vertices
    0,0,3.9624,  !- X,Y,Z ==> Vertex 1 {m}
    0,0,0,  !- X,Y,Z ==> Vertex 2 {m}
    13.59411048,0,0,  !- X,Y,Z ==> Vertex 3 {m}
    13.59411048,0,3.9624;  !- X,Y,Z ==> Vertex 4 {m}

  BuildingSurface:Detailed,
    E1 West Perim Spc (G.W1) - Wall 090_a,  !- Name
    Wall,                    !- Surface Type
    Interior Wall,           !- Construction Name
    Classroom E1 West Perim (G.W1),  !- Zone Name
    ,                        !- Space Name
    Surface,                 !- Outside Boundary Condition
    E1 West Perim Spc (G.W1) - Wall 090_a Reversed,  !- Outside Boundary Condition Object
    NoSun,                   !- Sun Exposure
    NoWind,                  !- Wind Exposure
    ,                        !- View Factor to Ground
    ,                        !- Number of Vertices
    13.59411048,16.45161048,2.7432,  !- X,Y,Z ==> Vertex 1 {m}
    13.59411048,16.45161048,0,  !- X,Y,Z ==> Vertex 2 {m}
    13.59411048,25.63371048,0,  !- X,Y,Z ==> Vertex 3 {m}
    13.59411048,25.63371048,2.7432;  !- X,Y,Z ==> Vertex 4 {m}

  BuildingSurface:Detailed,
    E1 West Perim Spc (G.W1) - Wall 090_a Reversed,  !- Name
    Wall,                    !- Surface Type
    Interior Wall,           !- Construction Name
    Classroom E2 North Perim (G.N3),  !- Zone Name
    ,                        !- Space Name
    Surface,                 !- Outside Boundary Condition
    E1 West Perim Spc (G.W1) - Wall 090_a,  !- Outside Boundary Condition Object
    NoSun,                   !- Sun Exposure
    NoWind,                  !- Wind Exposure
    ,                        !- View Factor to Ground
    ,                        !- Number of Vertices
    13.59411048,25.63371048,2.7432,  !- X,Y,Z ==> Vertex 1 {m}
    13.59411048,25.63371048,0,  !- X,Y,Z ==> Vertex 2 {m}
    13.59411048,16.45161048,0,  !- X,Y,Z ==> Vertex 3 {m}
    13.59411048,16.45161048,2.7432;  !- X,Y,Z ==> Vertex 4 {m}

  BuildingSurface:Detailed,
    E1 West Perim Spc (G.W1) - Wall 090_b,  !- Name
    Wall,                    !- Surface Type
    Interior Wall,           !- Construction Name
    Classroom E1 West Perim (G.W1),  !- Zone Name
    ,                        !- Space Name
    Surface,                 !- Outside Boundary Condition
    E1 West Perim Spc (G.W1) - Wall 090_b Reversed,  !- Outside Boundary Condition Object
    NoSun,                   !- Sun Exposure
    NoWind,                  !- Wind Exposure
    ,                        !- View Factor to Ground
    ,                        !- Number of Vertices
    13.59411048,0,3.9624,  !- X,Y,Z ==> Vertex 1 {m}
    13.59411048,0,2.7432,  !- X,Y,Z ==> Vertex 2 {m}
    13.59411048,9.1821,2.7432,  !- X,Y,Z ==> Vertex 3 {m}
    13.59411048,9.1821,3.9624;  !- X,Y,Z ==> Vertex 4 {m}

  BuildingSurface:Detailed,
    E1 West Perim Spc (G.W1) - Wall 090_b Reversed,  !- Name
    Wall,                    !- Surface Type
    Interior Wall,           !- Construction Name
    E2 South Perim Plnm (G.S5),  !- Zone Name
    ,                        !- Space Name
    Surface,                 !- Outside Boundary Condition
    E1 West Perim Spc (G.W1) - Wall 090_b,  !- Outside Boundary Condition Object
    NoSun,                   !- Sun Exposure
    NoWind,                  !- Wind Exposure
    ,                        !- View Factor to Ground
    ,                        !- Number of Vertices
    13.59411048,9.1821,3.9624,  !- X,Y,Z ==> Vertex 1 {m}
    13.59411048,9.1821,2.7432,  !- X,Y,Z ==> Vertex 2 {m}
    13.59411048,0,2.7432,  !- X,Y,Z ==> Vertex 3 {m}
    13.59411048,0,3.9624;  !- X,Y,Z ==> Vertex 4 {m}

  BuildingSurface:Detailed,
    E1 West Perim Spc (G.W1) - Wall 090_c,  !- Name
    Wall,                    !- Surface Type
    Interior Wall,           !- Construction Name
    Classroom E1 West Perim (G.W1),  !- Zone Name
    ,                        !- Space Name
    Surface,                 !- Outside Boundary Condition
    E1 West Perim Spc (G.W1) - Wall 090_c Reversed,  !- Outside Boundary Condition Object
    NoSun,                   !- Sun Exposure
    NoWind,                  !- Wind Exposure
    ,                        !- View Factor to Ground
    ,                        !- Number of Vertices
    13.59411048,9.1821,2.7432,  !- X,Y,Z ==> Vertex 1 {m}
    13.59411048,9.1821,0,  !- X,Y,Z ==> Vertex 2 {m}
    13.59411048,16.45161048,0,  !- X,Y,Z ==> Vertex 3 {m}
    13.59411048,16.45161048,2.7432;  !- X,Y,Z ==> Vertex 4 {m}

  BuildingSurface:Detailed,
    E1 West Perim Spc (G.W1) - Wall 090_c Reversed,  !- Name
    Wall,                    !- Surface Type
    Interior Wall,           !- Construction Name
    Classroom E2 West Perim (G.W1),  !- Zone Name
    ,                        !- Space Name
    Surface,                 !- Outside Boundary Condition
    E1 West Perim Spc (G.W1) - Wall 090_c,  !- Outside Boundary Condition Object
    NoSun,                   !- Sun Exposure
    NoWind,                  !- Wind Exposure
    ,                        !- View Factor to Ground
    ,                        !- Number of Vertices
    13.59411048,16.45161048,2.7432,  !- X,Y,Z ==> Vertex 1 {m}
    13.59411048,16.45161048,0,  !- X,Y,Z ==> Vertex 2 {m}
    13.59411048,9.1821,0,  !- X,Y,Z ==> Vertex 3 {m}
    13.59411048,9.1821,2.7432;  !- X,Y,Z ==> Vertex 4 {m}

  BuildingSurface:Detailed,
    E1 West Perim Spc (G.W1) - Wall 090_d,  !- Name
    Wall,                    !- Surface Type
    Interior Wall,           !- Construction Name
    Classroom E1 West Perim (G.W1),  !- Zone Name
    ,                        !- Space Name
    Surface,                 !- Outside Boundary Condition
    E1 West Perim Spc (G.W1) - Wall 090_d Reversed,  !- Outside Boundary Condition Object
    NoSun,                   !- Sun Exposure
    NoWind,                  !- Wind Exposure
    ,                        !- View Factor to Ground
    ,                        !- Number of Vertices
    13.59411048,0,2.7432,  !- X,Y,Z ==> Vertex 1 {m}
    13.59411048,0,0,  !- X,Y,Z ==> Vertex 2 {m}
    13.59411048,9.1821,0,  !- X,Y,Z ==> Vertex 3 {m}
    13.59411048,9.1821,2.7432;  !- X,Y,Z ==> Vertex 4 {m}

  BuildingSurface:Detailed,
    E1 West Perim Spc (G.W1) - Wall 090_d Reversed,  !- Name
    Wall,                    !- Surface Type
    Interior Wall,           !- Construction Name
    Classroom E2 South Perim (G.S2),  !- Zone Name
    ,                        !- Space Name
    Surface,                 !- Outside Boundary Condition
    E1 West Perim Spc (G.W1) - Wall 090_d,  !- Outside Boundary Condition Object
    NoSun,                   !- Sun Exposure
    NoWind,                  !- Wind Exposure
    ,                        !- View Factor to Ground
    ,                        !- Number of Vertices
    13.59411048,9.1821,2.7432,  !- X,Y,Z ==> Vertex 1 {m}
    13.59411048,9.1821,0,  !- X,Y,Z ==> Vertex 2 {m}
    13.59411048,0,0,  !- X,Y,Z ==> Vertex 3 {m}
    13.59411048,0,2.7432;  !- X,Y,Z ==> Vertex 4 {m}

  BuildingSurface:Detailed,
    E1 West Perim Spc (G.W1) - Wall 090_e,  !- Name
    Wall,                    !- Surface Type
    Interior Wall,           !- Construction Name
    Classroom E1 West Perim (G.W1),  !- Zone Name
    ,                        !- Space Name
    Surface,                 !- Outside Boundary Condition
    E1 West Perim Spc (G.W1) - Wall 090_e Reversed,  !- Outside Boundary Condition Object
    NoSun,                   !- Sun Exposure
    NoWind,                  !- Wind Exposure
    ,                        !- View Factor to Ground
    ,                        !- Number of Vertices
    13.59411048,9.1821,3.9624,  !- X,Y,Z ==> Vertex 1 {m}
    13.59411048,9.1821,2.7432,  !- X,Y,Z ==> Vertex 2 {m}
    13.59411048,16.45161048,2.7432,  !- X,Y,Z ==> Vertex 3 {m}
    13.59411048,16.45161048,3.9624;  !- X,Y,Z ==> Vertex 4 {m}

  BuildingSurface:Detailed,
    E1 West Perim Spc (G.W1) - Wall 090_e Reversed,  !- Name
    Wall,                    !- Surface Type
    Interior Wall,           !- Construction Name
    E2 West Perim Plnm (G.W4),  !- Zone Name
    ,                        !- Space Name
    Surface,                 !- Outside Boundary Condition
    E1 West Perim Spc (G.W1) - Wall 090_e,  !- Outside Boundary Condition Object
    NoSun,                   !- Sun Exposure
    NoWind,                  !- Wind Exposure
    ,                        !- View Factor to Ground
    ,                        !- Number of Vertices
    13.59411048,16.45161048,3.9624,  !- X,Y,Z ==> Vertex 1 {m}
    13.59411048,16.45161048,2.7432,  !- X,Y,Z ==> Vertex 2 {m}
    13.59411048,9.1821,2.7432,  !- X,Y,Z ==> Vertex 3 {m}
    13.59411048,9.1821,3.9624;  !- X,Y,Z ==> Vertex 4 {m}

  BuildingSurface:Detailed,
    E1 West Wall (G.W1.E3),  !- Name
    Wall,                    !- Surface Type
    Exterior Wall,           !- Construction Name
    Classroom E1 West Perim (G.W1),  !- Zone Name
    ,                        !- Space Name
    Outdoors,                !- Outside Boundary Condition
    ,                        !- Outside Boundary Condition Object
    SunExposed,              !- Sun Exposure
    WindExposed,             !- Wind Exposure
    ,                        !- View Factor to Ground
    ,                        !- Number of Vertices
    0,25.63371048,3.9624,  !- X,Y,Z ==> Vertex 1 {m}
    0,25.63371048,0,  !- X,Y,Z ==> Vertex 2 {m}
    0,0,0,  !- X,Y,Z ==> Vertex 3 {m}
    0,0,3.9624;  !- X,Y,Z ==> Vertex 4 {m}

  BuildingSurface:Detailed,
    E17 East Wall (G.W1.E2), !- Name
    Wall,                    !- Surface Type
    Exterior Wall,           !- Construction Name
    Gymnasium E17 West Perim (G.W1),  !- Zone Name
    ,                        !- Space Name
    Outdoors,                !- Outside Boundary Condition
    ,                        !- Outside Boundary Condition Object
    SunExposed,              !- Sun Exposure
    WindExposed,             !- Wind Exposure
    ,                        !- View Factor to Ground
    ,                        !- Number of Vertices
    29.65700952,56.11368,7.9248,  !- X,Y,Z ==> Vertex 1 {m}
    29.65700952,56.11368,0,  !- X,Y,Z ==> Vertex 2 {m}
    29.65700952,101.83368,0,  !- X,Y,Z ==> Vertex 3 {m}
    29.65700952,101.83368,7.9248;  !- X,Y,Z ==> Vertex 4 {m}

  BuildingSurface:Detailed,
    E17 Flr (G.W1.U1),       !- Name
    Floor,                   !- Surface Type
    E17 Flr (G.W1.U1) SlabOnOrBelowGradeF073,  !- Construction Name
    Gymnasium E17 West Perim (G.W1),  !- Zone Name
    ,                        !- Space Name
    GroundFCfactorMethod,    !- Outside Boundary Condition
    ,                        !- Outside Boundary Condition Object
    NoSun,                   !- Sun Exposure
    NoWind,                  !- Wind Exposure
    ,                        !- View Factor to Ground
    ,                        !- Number of Vertices
    29.65700952,101.83368,0,  !- X,Y,Z ==> Vertex 1 {m}
    29.65700952,56.11368,0,  !- X,Y,Z ==> Vertex 2 {m}
    -16.06299048,56.11368,0,  !- X,Y,Z ==> Vertex 3 {m}
    -16.06299048,101.83368,0;  !- X,Y,Z ==> Vertex 4 {m}

  BuildingSurface:Detailed,
    E17 North Wall (G.W1.E3),!- Name
    Wall,                    !- Surface Type
    Exterior Wall,           !- Construction Name
    Gymnasium E17 West Perim (G.W1),  !- Zone Name
    ,                        !- Space Name
    Outdoors,                !- Outside Boundary Condition
    ,                        !- Outside Boundary Condition Object
    SunExposed,              !- Sun Exposure
    WindExposed,             !- Wind Exposure
    ,                        !- View Factor to Ground
    ,                        !- Number of Vertices
    29.65700952,101.83368,7.9248,  !- X,Y,Z ==> Vertex 1 {m}
    29.65700952,101.83368,0,  !- X,Y,Z ==> Vertex 2 {m}
    -16.06299048,101.83368,0,  !- X,Y,Z ==> Vertex 3 {m}
    -16.06299048,101.83368,7.9248;  !- X,Y,Z ==> Vertex 4 {m}

  BuildingSurface:Detailed,
    E17 Roof (G.W1.E5),      !- Name
    Roof,                    !- Surface Type
    Exterior Roof,           !- Construction Name
    Gymnasium E17 West Perim (G.W1),  !- Zone Name
    ,                        !- Space Name
    Outdoors,                !- Outside Boundary Condition
    ,                        !- Outside Boundary Condition Object
    SunExposed,              !- Sun Exposure
    WindExposed,             !- Wind Exposure
    ,                        !- View Factor to Ground
    ,                        !- Number of Vertices
    29.65700952,56.11368,7.9248,  !- X,Y,Z ==> Vertex 1 {m}
    29.65700952,101.83368,7.9248,  !- X,Y,Z ==> Vertex 2 {m}
    -16.06299048,101.83368,7.9248,  !- X,Y,Z ==> Vertex 3 {m}
    -16.06299048,56.11368,7.9248;  !- X,Y,Z ==> Vertex 4 {m}

  BuildingSurface:Detailed,
    E17 South Wall (G.W1.E1),!- Name
    Wall,                    !- Surface Type
    Exterior Wall,           !- Construction Name
    Gymnasium E17 West Perim (G.W1),  !- Zone Name
    ,                        !- Space Name
    Outdoors,                !- Outside Boundary Condition
    ,                        !- Outside Boundary Condition Object
    SunExposed,              !- Sun Exposure
    WindExposed,             !- Wind Exposure
    ,                        !- View Factor to Ground
    ,                        !- Number of Vertices
    -16.06299048,56.11368,7.9248,  !- X,Y,Z ==> Vertex 1 {m}
    -16.06299048,56.11368,0,  !- X,Y,Z ==> Vertex 2 {m}
    29.65700952,56.11368,0,  !- X,Y,Z ==> Vertex 3 {m}
    29.65700952,56.11368,7.9248;  !- X,Y,Z ==> Vertex 4 {m}

  BuildingSurface:Detailed,
    E17 West Wall (G.W1.E4), !- Name
    Wall,                    !- Surface Type
    Exterior Wall,           !- Construction Name
    Gymnasium E17 West Perim (G.W1),  !- Zone Name
    ,                        !- Space Name
    Outdoors,                !- Outside Boundary Condition
    ,                        !- Outside Boundary Condition Object
    SunExposed,              !- Sun Exposure
    WindExposed,             !- Wind Exposure
    ,                        !- View Factor to Ground
    ,                        !- Number of Vertices
    -16.06299048,101.83368,7.9248,  !- X,Y,Z ==> Vertex 1 {m}
    -16.06299048,101.83368,0,  !- X,Y,Z ==> Vertex 2 {m}
    -16.06299048,56.11368,0,  !- X,Y,Z ==> Vertex 3 {m}
    -16.06299048,56.11368,7.9248;  !- X,Y,Z ==> Vertex 4 {m}

  BuildingSurface:Detailed,
    E2 Ceiling (G.N3.I11)-mirror,  !- Name
    Floor,                   !- Surface Type
    Interior Floor,          !- Construction Name
    E2 North Perim Plnm (G.N6),  !- Zone Name
    ,                        !- Space Name
    Surface,                 !- Outside Boundary Condition
    E2 Ceiling (G.N3.I11)-mirror Reversed,  !- Outside Boundary Condition Object
    NoSun,                   !- Sun Exposure
    NoWind,                  !- Wind Exposure
    ,                        !- View Factor to Ground
    ,                        !- Number of Vertices
    34.76244,25.63371048,2.7432,  !- X,Y,Z ==> Vertex 1 {m}
    34.76244,16.45161048,2.7432,  !- X,Y,Z ==> Vertex 2 {m}
    13.59411048,16.45161048,2.7432,  !- X,Y,Z ==> Vertex 3 {m}
    13.59411048,25.63371048,2.7432;  !- X,Y,Z ==> Vertex 4 {m}

  BuildingSurface:Detailed,
    E2 Ceiling (G.N3.I11)-mirror Reversed,  !- Name
    Ceiling,                 !- Surface Type
    Radiant Interior Ceiling,!- Construction Name
    Classroom E2 North Perim (G.N3),  !- Zone Name
    ,                        !- Space Name
    Surface,                 !- Outside Boundary Condition
    E2 Ceiling (G.N3.I11)-mirror,  !- Outside Boundary Condition Object
    NoSun,                   !- Sun Exposure
    NoWind,                  !- Wind Exposure
    ,                        !- View Factor to Ground
    ,                        !- Number of Vertices
    34.76244,16.45161048,2.7432,  !- X,Y,Z ==> Vertex 1 {m}
    34.76244,25.63371048,2.7432,  !- X,Y,Z ==> Vertex 2 {m}
    13.59411048,25.63371048,2.7432,  !- X,Y,Z ==> Vertex 3 {m}
    13.59411048,16.45161048,2.7432;  !- X,Y,Z ==> Vertex 4 {m}

  BuildingSurface:Detailed,
    E2 Ceiling (G.S2.I8)-mirror,  !- Name
    Floor,                   !- Surface Type
    Interior Floor,          !- Construction Name
    E2 South Perim Plnm (G.S5),  !- Zone Name
    ,                        !- Space Name
    Surface,                 !- Outside Boundary Condition
    E2 Ceiling (G.S2.I8)-mirror Reversed,  !- Outside Boundary Condition Object
    NoSun,                   !- Sun Exposure
    NoWind,                  !- Wind Exposure
    ,                        !- View Factor to Ground
    ,                        !- Number of Vertices
    34.76244,9.1821,2.7432,  !- X,Y,Z ==> Vertex 1 {m}
    34.76244,0,2.7432,  !- X,Y,Z ==> Vertex 2 {m}
    13.59411048,0,2.7432,  !- X,Y,Z ==> Vertex 3 {m}
    13.59411048,9.1821,2.7432;  !- X,Y,Z ==> Vertex 4 {m}

  BuildingSurface:Detailed,
    E2 Ceiling (G.S2.I8)-mirror Reversed,  !- Name
    Ceiling,                 !- Surface Type
    Radiant Interior Ceiling,!- Construction Name
    Classroom E2 South Perim (G.S2),  !- Zone Name
    ,                        !- Space Name
    Surface,                 !- Outside Boundary Condition
    E2 Ceiling (G.S2.I8)-mirror,  !- Outside Boundary Condition Object
    NoSun,                   !- Sun Exposure
    NoWind,                  !- Wind Exposure
    ,                        !- View Factor to Ground
    ,                        !- Number of Vertices
    34.76244,0,2.7432,  !- X,Y,Z ==> Vertex 1 {m}
    34.76244,9.1821,2.7432,  !- X,Y,Z ==> Vertex 2 {m}
    13.59411048,9.1821,2.7432,  !- X,Y,Z ==> Vertex 3 {m}
    13.59411048,0,2.7432;  !- X,Y,Z ==> Vertex 4 {m}

  BuildingSurface:Detailed,
    E2 Ceiling (G.W1.I5)-mirror,  !- Name
    Floor,                   !- Surface Type
    Interior Floor,          !- Construction Name
    E2 West Perim Plnm (G.W4),  !- Zone Name
    ,                        !- Space Name
    Surface,                 !- Outside Boundary Condition
    E2 Ceiling (G.W1.I5)-mirror Reversed,  !- Outside Boundary Condition Object
    NoSun,                   !- Sun Exposure
    NoWind,                  !- Wind Exposure
    ,                        !- View Factor to Ground
    ,                        !- Number of Vertices
    34.76244,16.45161048,2.7432,  !- X,Y,Z ==> Vertex 1 {m}
    34.76244,9.1821,2.7432,  !- X,Y,Z ==> Vertex 2 {m}
    13.59411048,9.1821,2.7432,  !- X,Y,Z ==> Vertex 3 {m}
    13.59411048,16.45161048,2.7432;  !- X,Y,Z ==> Vertex 4 {m}

  BuildingSurface:Detailed,
    E2 Ceiling (G.W1.I5)-mirror Reversed,  !- Name
    Ceiling,                 !- Surface Type
    Radiant Interior Ceiling,!- Construction Name
    Classroom E2 West Perim (G.W1),  !- Zone Name
    ,                        !- Space Name
    Surface,                 !- Outside Boundary Condition
    E2 Ceiling (G.W1.I5)-mirror,  !- Outside Boundary Condition Object
    NoSun,                   !- Sun Exposure
    NoWind,                  !- Wind Exposure
    ,                        !- View Factor to Ground
    ,                        !- Number of Vertices
    34.76244,9.1821,2.7432,  !- X,Y,Z ==> Vertex 1 {m}
    34.76244,16.45161048,2.7432,  !- X,Y,Z ==> Vertex 2 {m}
    13.59411048,16.45161048,2.7432,  !- X,Y,Z ==> Vertex 3 {m}
    13.59411048,9.1821,2.7432;  !- X,Y,Z ==> Vertex 4 {m}

  BuildingSurface:Detailed,
    E2 East Wall (G.N3.I10), !- Name
    Wall,                    !- Surface Type
    Interior Wall,           !- Construction Name
    Classroom E2 North Perim (G.N3),  !- Zone Name
    ,                        !- Space Name
    Surface,                 !- Outside Boundary Condition
    E2 East Wall (G.N3.I10) Reversed,  !- Outside Boundary Condition Object
    NoSun,                   !- Sun Exposure
    NoWind,                  !- Wind Exposure
    ,                        !- View Factor to Ground
    ,                        !- Number of Vertices
    34.76244,16.45161048,2.7432,  !- X,Y,Z ==> Vertex 1 {m}
    34.76244,16.45161048,0,  !- X,Y,Z ==> Vertex 2 {m}
    34.76244,25.63371048,0,  !- X,Y,Z ==> Vertex 3 {m}
    34.76244,25.63371048,2.7432;  !- X,Y,Z ==> Vertex 4 {m}

  BuildingSurface:Detailed,
    E2 East Wall (G.N3.I10) Reversed,  !- Name
    Wall,                    !- Surface Type
    Interior Wall,           !- Construction Name
    Dining E3 SW Perim (G.SW1),  !- Zone Name
    ,                        !- Space Name
    Surface,                 !- Outside Boundary Condition
    E2 East Wall (G.N3.I10), !- Outside Boundary Condition Object
    NoSun,                   !- Sun Exposure
    NoWind,                  !- Wind Exposure
    ,                        !- View Factor to Ground
    ,                        !- Number of Vertices
    34.76244,25.63371048,2.7432,  !- X,Y,Z ==> Vertex 1 {m}
    34.76244,25.63371048,0,  !- X,Y,Z ==> Vertex 2 {m}
    34.76244,16.45161048,0,  !- X,Y,Z ==> Vertex 3 {m}
    34.76244,16.45161048,2.7432;  !- X,Y,Z ==> Vertex 4 {m}

  BuildingSurface:Detailed,
    E2 East Wall (G.N6.I19), !- Name
    Wall,                    !- Surface Type
    Interior Wall,           !- Construction Name
    E2 North Perim Plnm (G.N6),  !- Zone Name
    ,                        !- Space Name
    Surface,                 !- Outside Boundary Condition
    E2 East Wall (G.N6.I19) Reversed,  !- Outside Boundary Condition Object
    NoSun,                   !- Sun Exposure
    NoWind,                  !- Wind Exposure
    ,                        !- View Factor to Ground
    ,                        !- Number of Vertices
    34.76244,16.45161048,3.9624,  !- X,Y,Z ==> Vertex 1 {m}
    34.76244,16.45161048,2.7432,  !- X,Y,Z ==> Vertex 2 {m}
    34.76244,25.63371048,2.7432,  !- X,Y,Z ==> Vertex 3 {m}
    34.76244,25.63371048,3.9624;  !- X,Y,Z ==> Vertex 4 {m}

  BuildingSurface:Detailed,
    E2 East Wall (G.N6.I19) Reversed,  !- Name
    Wall,                    !- Surface Type
    Interior Wall,           !- Construction Name
    Dining E3 SW Perim (G.SW1),  !- Zone Name
    ,                        !- Space Name
    Surface,                 !- Outside Boundary Condition
    E2 East Wall (G.N6.I19), !- Outside Boundary Condition Object
    NoSun,                   !- Sun Exposure
    NoWind,                  !- Wind Exposure
    ,                        !- View Factor to Ground
    ,                        !- Number of Vertices
    34.76244,25.63371048,3.9624,  !- X,Y,Z ==> Vertex 1 {m}
    34.76244,25.63371048,2.7432,  !- X,Y,Z ==> Vertex 2 {m}
    34.76244,16.45161048,2.7432,  !- X,Y,Z ==> Vertex 3 {m}
    34.76244,16.45161048,3.9624;  !- X,Y,Z ==> Vertex 4 {m}

  BuildingSurface:Detailed,
    E2 East Wall (G.S2.I6),  !- Name
    Wall,                    !- Surface Type
    Interior Wall,           !- Construction Name
    Classroom E2 South Perim (G.S2),  !- Zone Name
    ,                        !- Space Name
    Surface,                 !- Outside Boundary Condition
    E2 East Wall (G.S2.I6) Reversed,  !- Outside Boundary Condition Object
    NoSun,                   !- Sun Exposure
    NoWind,                  !- Wind Exposure
    ,                        !- View Factor to Ground
    ,                        !- Number of Vertices
    34.76244,0,2.7432,  !- X,Y,Z ==> Vertex 1 {m}
    34.76244,0,0,  !- X,Y,Z ==> Vertex 2 {m}
    34.76244,9.1821,0,  !- X,Y,Z ==> Vertex 3 {m}
    34.76244,9.1821,2.7432;  !- X,Y,Z ==> Vertex 4 {m}

  BuildingSurface:Detailed,
    E2 East Wall (G.S2.I6) Reversed,  !- Name
    Wall,                    !- Surface Type
    Interior Wall,           !- Construction Name
    Dining E3 SW Perim (G.SW1),  !- Zone Name
    ,                        !- Space Name
    Surface,                 !- Outside Boundary Condition
    E2 East Wall (G.S2.I6),  !- Outside Boundary Condition Object
    NoSun,                   !- Sun Exposure
    NoWind,                  !- Wind Exposure
    ,                        !- View Factor to Ground
    ,                        !- Number of Vertices
    34.76244,9.1821,2.7432,  !- X,Y,Z ==> Vertex 1 {m}
    34.76244,9.1821,0,  !- X,Y,Z ==> Vertex 2 {m}
    34.76244,0,0,  !- X,Y,Z ==> Vertex 3 {m}
    34.76244,0,2.7432;  !- X,Y,Z ==> Vertex 4 {m}

  BuildingSurface:Detailed,
    E2 East Wall (G.S5.I16), !- Name
    Wall,                    !- Surface Type
    Interior Wall,           !- Construction Name
    E2 South Perim Plnm (G.S5),  !- Zone Name
    ,                        !- Space Name
    Surface,                 !- Outside Boundary Condition
    E2 East Wall (G.S5.I16) Reversed,  !- Outside Boundary Condition Object
    NoSun,                   !- Sun Exposure
    NoWind,                  !- Wind Exposure
    ,                        !- View Factor to Ground
    ,                        !- Number of Vertices
    34.76244,0,3.9624,  !- X,Y,Z ==> Vertex 1 {m}
    34.76244,0,2.7432,  !- X,Y,Z ==> Vertex 2 {m}
    34.76244,9.1821,2.7432,  !- X,Y,Z ==> Vertex 3 {m}
    34.76244,9.1821,3.9624;  !- X,Y,Z ==> Vertex 4 {m}

  BuildingSurface:Detailed,
    E2 East Wall (G.S5.I16) Reversed,  !- Name
    Wall,                    !- Surface Type
    Interior Wall,           !- Construction Name
    Dining E3 SW Perim (G.SW1),  !- Zone Name
    ,                        !- Space Name
    Surface,                 !- Outside Boundary Condition
    E2 East Wall (G.S5.I16), !- Outside Boundary Condition Object
    NoSun,                   !- Sun Exposure
    NoWind,                  !- Wind Exposure
    ,                        !- View Factor to Ground
    ,                        !- Number of Vertices
    34.76244,9.1821,3.9624,  !- X,Y,Z ==> Vertex 1 {m}
    34.76244,9.1821,2.7432,  !- X,Y,Z ==> Vertex 2 {m}
    34.76244,0,2.7432,  !- X,Y,Z ==> Vertex 3 {m}
    34.76244,0,3.9624;  !- X,Y,Z ==> Vertex 4 {m}

  BuildingSurface:Detailed,
    E2 East Wall (G.W1.I2),  !- Name
    Wall,                    !- Surface Type
    Interior Wall,           !- Construction Name
    Classroom E2 West Perim (G.W1),  !- Zone Name
    ,                        !- Space Name
    Surface,                 !- Outside Boundary Condition
    E2 East Wall (G.W1.I2) Reversed,  !- Outside Boundary Condition Object
    NoSun,                   !- Sun Exposure
    NoWind,                  !- Wind Exposure
    ,                        !- View Factor to Ground
    ,                        !- Number of Vertices
    34.76244,9.1821,2.7432,  !- X,Y,Z ==> Vertex 1 {m}
    34.76244,9.1821,0,  !- X,Y,Z ==> Vertex 2 {m}
    34.76244,16.45161048,0,  !- X,Y,Z ==> Vertex 3 {m}
    34.76244,16.45161048,2.7432;  !- X,Y,Z ==> Vertex 4 {m}

  BuildingSurface:Detailed,
    E2 East Wall (G.W1.I2) Reversed,  !- Name
    Wall,                    !- Surface Type
    Interior Wall,           !- Construction Name
    Dining E3 SW Perim (G.SW1),  !- Zone Name
    ,                        !- Space Name
    Surface,                 !- Outside Boundary Condition
    E2 East Wall (G.W1.I2),  !- Outside Boundary Condition Object
    NoSun,                   !- Sun Exposure
    NoWind,                  !- Wind Exposure
    ,                        !- View Factor to Ground
    ,                        !- Number of Vertices
    34.76244,16.45161048,2.7432,  !- X,Y,Z ==> Vertex 1 {m}
    34.76244,16.45161048,0,  !- X,Y,Z ==> Vertex 2 {m}
    34.76244,9.1821,0,  !- X,Y,Z ==> Vertex 3 {m}
    34.76244,9.1821,2.7432;  !- X,Y,Z ==> Vertex 4 {m}

  BuildingSurface:Detailed,
    E2 East Wall (G.W4.I13), !- Name
    Wall,                    !- Surface Type
    Interior Wall,           !- Construction Name
    E2 West Perim Plnm (G.W4),  !- Zone Name
    ,                        !- Space Name
    Surface,                 !- Outside Boundary Condition
    E2 East Wall (G.W4.I13) Reversed,  !- Outside Boundary Condition Object
    NoSun,                   !- Sun Exposure
    NoWind,                  !- Wind Exposure
    ,                        !- View Factor to Ground
    ,                        !- Number of Vertices
    34.76244,9.1821,3.9624,  !- X,Y,Z ==> Vertex 1 {m}
    34.76244,9.1821,2.7432,  !- X,Y,Z ==> Vertex 2 {m}
    34.76244,16.45161048,2.7432,  !- X,Y,Z ==> Vertex 3 {m}
    34.76244,16.45161048,3.9624;  !- X,Y,Z ==> Vertex 4 {m}

  BuildingSurface:Detailed,
    E2 East Wall (G.W4.I13) Reversed,  !- Name
    Wall,                    !- Surface Type
    Interior Wall,           !- Construction Name
    Dining E3 SW Perim (G.SW1),  !- Zone Name
    ,                        !- Space Name
    Surface,                 !- Outside Boundary Condition
    E2 East Wall (G.W4.I13), !- Outside Boundary Condition Object
    NoSun,                   !- Sun Exposure
    NoWind,                  !- Wind Exposure
    ,                        !- View Factor to Ground
    ,                        !- Number of Vertices
    34.76244,16.45161048,3.9624,  !- X,Y,Z ==> Vertex 1 {m}
    34.76244,16.45161048,2.7432,  !- X,Y,Z ==> Vertex 2 {m}
    34.76244,9.1821,2.7432,  !- X,Y,Z ==> Vertex 3 {m}
    34.76244,9.1821,3.9624;  !- X,Y,Z ==> Vertex 4 {m}

  BuildingSurface:Detailed,
    E2 Flr (G.N3.U3),        !- Name
    Floor,                   !- Surface Type
    E2 Flr (G.N3.U3) SlabOnOrBelowGradeF073,  !- Construction Name
    Classroom E2 North Perim (G.N3),  !- Zone Name
    ,                        !- Space Name
    GroundFCfactorMethod,    !- Outside Boundary Condition
    ,                        !- Outside Boundary Condition Object
    NoSun,                   !- Sun Exposure
    NoWind,                  !- Wind Exposure
    ,                        !- View Factor to Ground
    ,                        !- Number of Vertices
    34.76244,25.63371048,0,  !- X,Y,Z ==> Vertex 1 {m}
    34.76244,16.45161048,0,  !- X,Y,Z ==> Vertex 2 {m}
    13.59411048,16.45161048,0,  !- X,Y,Z ==> Vertex 3 {m}
    13.59411048,25.63371048,0;  !- X,Y,Z ==> Vertex 4 {m}

  BuildingSurface:Detailed,
    E2 Flr (G.S2.U2),        !- Name
    Floor,                   !- Surface Type
    E2 Flr (G.S2.U2) SlabOnOrBelowGradeF073,  !- Construction Name
    Classroom E2 South Perim (G.S2),  !- Zone Name
    ,                        !- Space Name
    GroundFCfactorMethod,    !- Outside Boundary Condition
    ,                        !- Outside Boundary Condition Object
    NoSun,                   !- Sun Exposure
    NoWind,                  !- Wind Exposure
    ,                        !- View Factor to Ground
    ,                        !- Number of Vertices
    34.76244,9.1821,0,  !- X,Y,Z ==> Vertex 1 {m}
    34.76244,0,0,  !- X,Y,Z ==> Vertex 2 {m}
    13.59411048,0,0,  !- X,Y,Z ==> Vertex 3 {m}
    13.59411048,9.1821,0;  !- X,Y,Z ==> Vertex 4 {m}

  BuildingSurface:Detailed,
    E2 Flr (G.W1.U1),        !- Name
    Floor,                   !- Surface Type
    E2 Flr (G.W1.U1) SlabOnOrBelowGradeF073,  !- Construction Name
    Classroom E2 West Perim (G.W1),  !- Zone Name
    ,                        !- Space Name
    GroundFCfactorMethod,    !- Outside Boundary Condition
    ,                        !- Outside Boundary Condition Object
    NoSun,                   !- Sun Exposure
    NoWind,                  !- Wind Exposure
    ,                        !- View Factor to Ground
    ,                        !- Number of Vertices
    34.76244,16.45161048,0,  !- X,Y,Z ==> Vertex 1 {m}
    34.76244,9.1821,0,  !- X,Y,Z ==> Vertex 2 {m}
    13.59411048,9.1821,0,  !- X,Y,Z ==> Vertex 3 {m}
    13.59411048,16.45161048,0;  !- X,Y,Z ==> Vertex 4 {m}

  BuildingSurface:Detailed,
    E2 North Wall (G.N3.E2), !- Name
    Wall,                    !- Surface Type
    Exterior Wall,           !- Construction Name
    Classroom E2 North Perim (G.N3),  !- Zone Name
    ,                        !- Space Name
    Outdoors,                !- Outside Boundary Condition
    ,                        !- Outside Boundary Condition Object
    SunExposed,              !- Sun Exposure
    WindExposed,             !- Wind Exposure
    ,                        !- View Factor to Ground
    ,                        !- Number of Vertices
    34.76244,25.63371048,2.7432,  !- X,Y,Z ==> Vertex 1 {m}
    34.76244,25.63371048,0,  !- X,Y,Z ==> Vertex 2 {m}
    13.59411048,25.63371048,0,  !- X,Y,Z ==> Vertex 3 {m}
    13.59411048,25.63371048,2.7432;  !- X,Y,Z ==> Vertex 4 {m}

  BuildingSurface:Detailed,
    E2 North Wall (G.N6.E4), !- Name
    Wall,                    !- Surface Type
    Exterior Wall,           !- Construction Name
    E2 North Perim Plnm (G.N6),  !- Zone Name
    ,                        !- Space Name
    Outdoors,                !- Outside Boundary Condition
    ,                        !- Outside Boundary Condition Object
    SunExposed,              !- Sun Exposure
    WindExposed,             !- Wind Exposure
    ,                        !- View Factor to Ground
    ,                        !- Number of Vertices
    34.76244,25.63371048,3.9624,  !- X,Y,Z ==> Vertex 1 {m}
    34.76244,25.63371048,2.7432,  !- X,Y,Z ==> Vertex 2 {m}
    13.59411048,25.63371048,2.7432,  !- X,Y,Z ==> Vertex 3 {m}
    13.59411048,25.63371048,3.9624;  !- X,Y,Z ==> Vertex 4 {m}

  BuildingSurface:Detailed,
    E2 North Wall (G.W1.I3)-mirror,  !- Name
    Wall,                    !- Surface Type
    Interior Wall,           !- Construction Name
    Classroom E2 North Perim (G.N3),  !- Zone Name
    ,                        !- Space Name
    Surface,                 !- Outside Boundary Condition
    E2 North Wall (G.W1.I3)-mirror Reversed,  !- Outside Boundary Condition Object
    NoSun,                   !- Sun Exposure
    NoWind,                  !- Wind Exposure
    ,                        !- View Factor to Ground
    ,                        !- Number of Vertices
    13.59411048,16.45161048,2.7432,  !- X,Y,Z ==> Vertex 1 {m}
    13.59411048,16.45161048,0,  !- X,Y,Z ==> Vertex 2 {m}
    34.76244,16.45161048,0,  !- X,Y,Z ==> Vertex 3 {m}
    34.76244,16.45161048,2.7432;  !- X,Y,Z ==> Vertex 4 {m}

  BuildingSurface:Detailed,
    E2 North Wall (G.W1.I3)-mirror Reversed,  !- Name
    Wall,                    !- Surface Type
    Interior Wall,           !- Construction Name
    Classroom E2 West Perim (G.W1),  !- Zone Name
    ,                        !- Space Name
    Surface,                 !- Outside Boundary Condition
    E2 North Wall (G.W1.I3)-mirror,  !- Outside Boundary Condition Object
    NoSun,                   !- Sun Exposure
    NoWind,                  !- Wind Exposure
    ,                        !- View Factor to Ground
    ,                        !- Number of Vertices
    34.76244,16.45161048,2.7432,  !- X,Y,Z ==> Vertex 1 {m}
    34.76244,16.45161048,0,  !- X,Y,Z ==> Vertex 2 {m}
    13.59411048,16.45161048,0,  !- X,Y,Z ==> Vertex 3 {m}
    13.59411048,16.45161048,2.7432;  !- X,Y,Z ==> Vertex 4 {m}

  BuildingSurface:Detailed,
    E2 North Wall (G.W4.I14)-mirror,  !- Name
    Wall,                    !- Surface Type
    Interior Wall,           !- Construction Name
    E2 North Perim Plnm (G.N6),  !- Zone Name
    ,                        !- Space Name
    Surface,                 !- Outside Boundary Condition
    E2 North Wall (G.W4.I14)-mirror Reversed,  !- Outside Boundary Condition Object
    NoSun,                   !- Sun Exposure
    NoWind,                  !- Wind Exposure
    ,                        !- View Factor to Ground
    ,                        !- Number of Vertices
    13.59411048,16.45161048,3.9624,  !- X,Y,Z ==> Vertex 1 {m}
    13.59411048,16.45161048,2.7432,  !- X,Y,Z ==> Vertex 2 {m}
    34.76244,16.45161048,2.7432,  !- X,Y,Z ==> Vertex 3 {m}
    34.76244,16.45161048,3.9624;  !- X,Y,Z ==> Vertex 4 {m}

  BuildingSurface:Detailed,
    E2 North Wall (G.W4.I14)-mirror Reversed,  !- Name
    Wall,                    !- Surface Type
    Interior Wall,           !- Construction Name
    E2 West Perim Plnm (G.W4),  !- Zone Name
    ,                        !- Space Name
    Surface,                 !- Outside Boundary Condition
    E2 North Wall (G.W4.I14)-mirror,  !- Outside Boundary Condition Object
    NoSun,                   !- Sun Exposure
    NoWind,                  !- Wind Exposure
    ,                        !- View Factor to Ground
    ,                        !- Number of Vertices
    34.76244,16.45161048,3.9624,  !- X,Y,Z ==> Vertex 1 {m}
    34.76244,16.45161048,2.7432,  !- X,Y,Z ==> Vertex 2 {m}
    13.59411048,16.45161048,2.7432,  !- X,Y,Z ==> Vertex 3 {m}
    13.59411048,16.45161048,3.9624;  !- X,Y,Z ==> Vertex 4 {m}

  BuildingSurface:Detailed,
    E2 South Wall (G.S2.E1), !- Name
    Wall,                    !- Surface Type
    Exterior Wall,           !- Construction Name
    Classroom E2 South Perim (G.S2),  !- Zone Name
    ,                        !- Space Name
    Outdoors,                !- Outside Boundary Condition
    ,                        !- Outside Boundary Condition Object
    SunExposed,              !- Sun Exposure
    WindExposed,             !- Wind Exposure
    ,                        !- View Factor to Ground
    ,                        !- Number of Vertices
    13.59411048,0,2.7432,  !- X,Y,Z ==> Vertex 1 {m}
    13.59411048,0,0,  !- X,Y,Z ==> Vertex 2 {m}
    34.76244,0,0,  !- X,Y,Z ==> Vertex 3 {m}
    34.76244,0,2.7432;  !- X,Y,Z ==> Vertex 4 {m}

  BuildingSurface:Detailed,
    E2 South Wall (G.S5.E3), !- Name
    Wall,                    !- Surface Type
    Exterior Wall,           !- Construction Name
    E2 South Perim Plnm (G.S5),  !- Zone Name
    ,                        !- Space Name
    Outdoors,                !- Outside Boundary Condition
    ,                        !- Outside Boundary Condition Object
    SunExposed,              !- Sun Exposure
    WindExposed,             !- Wind Exposure
    ,                        !- View Factor to Ground
    ,                        !- Number of Vertices
    13.59411048,0,3.9624,  !- X,Y,Z ==> Vertex 1 {m}
    13.59411048,0,2.7432,  !- X,Y,Z ==> Vertex 2 {m}
    34.76244,0,2.7432,  !- X,Y,Z ==> Vertex 3 {m}
    34.76244,0,3.9624;  !- X,Y,Z ==> Vertex 4 {m}

  BuildingSurface:Detailed,
    E2 South Wall (G.W1.I1)-mirror,  !- Name
    Wall,                    !- Surface Type
    Interior Wall,           !- Construction Name
    Classroom E2 South Perim (G.S2),  !- Zone Name
    ,                        !- Space Name
    Surface,                 !- Outside Boundary Condition
    E2 South Wall (G.W1.I1)-mirror Reversed,  !- Outside Boundary Condition Object
    NoSun,                   !- Sun Exposure
    NoWind,                  !- Wind Exposure
    ,                        !- View Factor to Ground
    ,                        !- Number of Vertices
    34.76244,9.1821,2.7432,  !- X,Y,Z ==> Vertex 1 {m}
    34.76244,9.1821,0,  !- X,Y,Z ==> Vertex 2 {m}
    13.59411048,9.1821,0,  !- X,Y,Z ==> Vertex 3 {m}
    13.59411048,9.1821,2.7432;  !- X,Y,Z ==> Vertex 4 {m}

  BuildingSurface:Detailed,
    E2 South Wall (G.W1.I1)-mirror Reversed,  !- Name
    Wall,                    !- Surface Type
    Interior Wall,           !- Construction Name
    Classroom E2 West Perim (G.W1),  !- Zone Name
    ,                        !- Space Name
    Surface,                 !- Outside Boundary Condition
    E2 South Wall (G.W1.I1)-mirror,  !- Outside Boundary Condition Object
    NoSun,                   !- Sun Exposure
    NoWind,                  !- Wind Exposure
    ,                        !- View Factor to Ground
    ,                        !- Number of Vertices
    13.59411048,9.1821,2.7432,  !- X,Y,Z ==> Vertex 1 {m}
    13.59411048,9.1821,0,  !- X,Y,Z ==> Vertex 2 {m}
    34.76244,9.1821,0,  !- X,Y,Z ==> Vertex 3 {m}
    34.76244,9.1821,2.7432;  !- X,Y,Z ==> Vertex 4 {m}

  BuildingSurface:Detailed,
    E2 South Wall (G.W4.I12)-mirror,  !- Name
    Wall,                    !- Surface Type
    Interior Wall,           !- Construction Name
    E2 South Perim Plnm (G.S5),  !- Zone Name
    ,                        !- Space Name
    Surface,                 !- Outside Boundary Condition
    E2 South Wall (G.W4.I12)-mirror Reversed,  !- Outside Boundary Condition Object
    NoSun,                   !- Sun Exposure
    NoWind,                  !- Wind Exposure
    ,                        !- View Factor to Ground
    ,                        !- Number of Vertices
    34.76244,9.1821,3.9624,  !- X,Y,Z ==> Vertex 1 {m}
    34.76244,9.1821,2.7432,  !- X,Y,Z ==> Vertex 2 {m}
    13.59411048,9.1821,2.7432,  !- X,Y,Z ==> Vertex 3 {m}
    13.59411048,9.1821,3.9624;  !- X,Y,Z ==> Vertex 4 {m}

  BuildingSurface:Detailed,
    E2 South Wall (G.W4.I12)-mirror Reversed,  !- Name
    Wall,                    !- Surface Type
    Interior Wall,           !- Construction Name
    E2 West Perim Plnm (G.W4),  !- Zone Name
    ,                        !- Space Name
    Surface,                 !- Outside Boundary Condition
    E2 South Wall (G.W4.I12)-mirror,  !- Outside Boundary Condition Object
    NoSun,                   !- Sun Exposure
    NoWind,                  !- Wind Exposure
    ,                        !- View Factor to Ground
    ,                        !- Number of Vertices
    13.59411048,9.1821,3.9624,  !- X,Y,Z ==> Vertex 1 {m}
    13.59411048,9.1821,2.7432,  !- X,Y,Z ==> Vertex 2 {m}
    34.76244,9.1821,2.7432,  !- X,Y,Z ==> Vertex 3 {m}
    34.76244,9.1821,3.9624;  !- X,Y,Z ==> Vertex 4 {m}

  BuildingSurface:Detailed,
    E3 East Wall (G.NE2.E5), !- Name
    Wall,                    !- Surface Type
    Exterior Wall,           !- Construction Name
    Kitchen E3 NE Perim (G.NE2),  !- Zone Name
    ,                        !- Space Name
    Outdoors,                !- Outside Boundary Condition
    ,                        !- Outside Boundary Condition Object
    SunExposed,              !- Sun Exposure
    WindExposed,             !- Wind Exposure
    ,                        !- View Factor to Ground
    ,                        !- Number of Vertices
    64.70904,9.97759752,3.9624,  !- X,Y,Z ==> Vertex 1 {m}
    64.70904,9.97759752,0,  !- X,Y,Z ==> Vertex 2 {m}
    64.70904,25.63371048,0,  !- X,Y,Z ==> Vertex 3 {m}
    64.70904,25.63371048,3.9624;  !- X,Y,Z ==> Vertex 4 {m}

  BuildingSurface:Detailed,
    E3 East Wall (G.SW1.E2), !- Name
    Wall,                    !- Surface Type
    Exterior Wall,           !- Construction Name
    Dining E3 SW Perim (G.SW1),  !- Zone Name
    ,                        !- Space Name
    Outdoors,                !- Outside Boundary Condition
    ,                        !- Outside Boundary Condition Object
    SunExposed,              !- Sun Exposure
    WindExposed,             !- Wind Exposure
    ,                        !- View Factor to Ground
    ,                        !- Number of Vertices
    64.70904,0,3.9624,  !- X,Y,Z ==> Vertex 1 {m}
    64.70904,0,0,  !- X,Y,Z ==> Vertex 2 {m}
    64.70904,9.97759752,0,  !- X,Y,Z ==> Vertex 3 {m}
    64.70904,9.97759752,3.9624;  !- X,Y,Z ==> Vertex 4 {m}

  BuildingSurface:Detailed,
    E3 East Wall (G.SW1.I2)-mirror,  !- Name
    Wall,                    !- Surface Type
    Interior Wall,           !- Construction Name
    Kitchen E3 NE Perim (G.NE2),  !- Zone Name
    ,                        !- Space Name
    Surface,                 !- Outside Boundary Condition
    E3 East Wall (G.SW1.I2)-mirror Reversed,  !- Outside Boundary Condition Object
    NoSun,                   !- Sun Exposure
    NoWind,                  !- Wind Exposure
    ,                        !- View Factor to Ground
    ,                        !- Number of Vertices
    49.106328,25.63371048,3.9624,  !- X,Y,Z ==> Vertex 1 {m}
    49.106328,25.63371048,0,  !- X,Y,Z ==> Vertex 2 {m}
    49.106328,9.97759752,0,  !- X,Y,Z ==> Vertex 3 {m}
    49.106328,9.97759752,3.9624;  !- X,Y,Z ==> Vertex 4 {m}

  BuildingSurface:Detailed,
    E3 East Wall (G.SW1.I2)-mirror Reversed,  !- Name
    Wall,                    !- Surface Type
    Interior Wall,           !- Construction Name
    Dining E3 SW Perim (G.SW1),  !- Zone Name
    ,                        !- Space Name
    Surface,                 !- Outside Boundary Condition
    E3 East Wall (G.SW1.I2)-mirror,  !- Outside Boundary Condition Object
    NoSun,                   !- Sun Exposure
    NoWind,                  !- Wind Exposure
    ,                        !- View Factor to Ground
    ,                        !- Number of Vertices
    49.106328,9.97759752,3.9624,  !- X,Y,Z ==> Vertex 1 {m}
    49.106328,9.97759752,0,  !- X,Y,Z ==> Vertex 2 {m}
    49.106328,25.63371048,0,  !- X,Y,Z ==> Vertex 3 {m}
    49.106328,25.63371048,3.9624;  !- X,Y,Z ==> Vertex 4 {m}

  BuildingSurface:Detailed,
    E3 Flr (G.NE2.U2),       !- Name
    Floor,                   !- Surface Type
    E3 Flr (G.NE2.U2) SlabOnOrBelowGradeF073,  !- Construction Name
    Kitchen E3 NE Perim (G.NE2),  !- Zone Name
    ,                        !- Space Name
    GroundFCfactorMethod,    !- Outside Boundary Condition
    ,                        !- Outside Boundary Condition Object
    NoSun,                   !- Sun Exposure
    NoWind,                  !- Wind Exposure
    ,                        !- View Factor to Ground
    ,                        !- Number of Vertices
    64.70904,25.63371048,0,  !- X,Y,Z ==> Vertex 1 {m}
    64.70904,9.97759752,0,  !- X,Y,Z ==> Vertex 2 {m}
    49.106328,9.97759752,0,  !- X,Y,Z ==> Vertex 3 {m}
    49.106328,25.63371048,0;  !- X,Y,Z ==> Vertex 4 {m}

  BuildingSurface:Detailed,
    E3 Flr (G.SW1.U1),       !- Name
    Floor,                   !- Surface Type
    E3 Flr (G.SW1.U1) SlabOnOrBelowGradeF073,  !- Construction Name
    Dining E3 SW Perim (G.SW1),  !- Zone Name
    ,                        !- Space Name
    GroundFCfactorMethod,    !- Outside Boundary Condition
    ,                        !- Outside Boundary Condition Object
    NoSun,                   !- Sun Exposure
    NoWind,                  !- Wind Exposure
    ,                        !- View Factor to Ground
    ,                        !- Number of Vertices
    49.106328,25.63371048,0,  !- X,Y,Z ==> Vertex 1 {m}
    49.106328,9.97759752,0,  !- X,Y,Z ==> Vertex 2 {m}
    64.70904,9.97759752,0,  !- X,Y,Z ==> Vertex 3 {m}
    64.70904,0,0,  !- X,Y,Z ==> Vertex 4 {m}
    34.76244,0,0,  !- X,Y,Z ==> Vertex 5 {m}
    34.76244,25.63371048,0;  !- X,Y,Z ==> Vertex 6 {m}

  BuildingSurface:Detailed,
    E3 North Wall (G.NE2.E4),!- Name
    Wall,                    !- Surface Type
    Exterior Wall,           !- Construction Name
    Kitchen E3 NE Perim (G.NE2),  !- Zone Name
    ,                        !- Space Name
    Outdoors,                !- Outside Boundary Condition
    ,                        !- Outside Boundary Condition Object
    SunExposed,              !- Sun Exposure
    WindExposed,             !- Wind Exposure
    ,                        !- View Factor to Ground
    ,                        !- Number of Vertices
    64.70904,25.63371048,3.9624,  !- X,Y,Z ==> Vertex 1 {m}
    64.70904,25.63371048,0,  !- X,Y,Z ==> Vertex 2 {m}
    49.106328,25.63371048,0,  !- X,Y,Z ==> Vertex 3 {m}
    49.106328,25.63371048,3.9624;  !- X,Y,Z ==> Vertex 4 {m}

  BuildingSurface:Detailed,
    E3 North Wall (G.SW1.E3),!- Name
    Wall,                    !- Surface Type
    Exterior Wall,           !- Construction Name
    Dining E3 SW Perim (G.SW1),  !- Zone Name
    ,                        !- Space Name
    Outdoors,                !- Outside Boundary Condition
    ,                        !- Outside Boundary Condition Object
    SunExposed,              !- Sun Exposure
    WindExposed,             !- Wind Exposure
    ,                        !- View Factor to Ground
    ,                        !- Number of Vertices
    49.106328,25.63371048,3.9624,  !- X,Y,Z ==> Vertex 1 {m}
    49.106328,25.63371048,0,  !- X,Y,Z ==> Vertex 2 {m}
    34.76244,25.63371048,0,  !- X,Y,Z ==> Vertex 3 {m}
    34.76244,25.63371048,3.9624;  !- X,Y,Z ==> Vertex 4 {m}

  BuildingSurface:Detailed,
    E3 North Wall (G.SW1.I1)-mirror,  !- Name
    Wall,                    !- Surface Type
    Interior Wall,           !- Construction Name
    Kitchen E3 NE Perim (G.NE2),  !- Zone Name
    ,                        !- Space Name
    Surface,                 !- Outside Boundary Condition
    E3 North Wall (G.SW1.I1)-mirror Reversed,  !- Outside Boundary Condition Object
    NoSun,                   !- Sun Exposure
    NoWind,                  !- Wind Exposure
    ,                        !- View Factor to Ground
    ,                        !- Number of Vertices
    49.106328,9.97759752,3.9624,  !- X,Y,Z ==> Vertex 1 {m}
    49.106328,9.97759752,0,  !- X,Y,Z ==> Vertex 2 {m}
    64.70904,9.97759752,0,  !- X,Y,Z ==> Vertex 3 {m}
    64.70904,9.97759752,3.9624;  !- X,Y,Z ==> Vertex 4 {m}

  BuildingSurface:Detailed,
    E3 North Wall (G.SW1.I1)-mirror Reversed,  !- Name
    Wall,                    !- Surface Type
    Interior Wall,           !- Construction Name
    Dining E3 SW Perim (G.SW1),  !- Zone Name
    ,                        !- Space Name
    Surface,                 !- Outside Boundary Condition
    E3 North Wall (G.SW1.I1)-mirror,  !- Outside Boundary Condition Object
    NoSun,                   !- Sun Exposure
    NoWind,                  !- Wind Exposure
    ,                        !- View Factor to Ground
    ,                        !- Number of Vertices
    64.70904,9.97759752,3.9624,  !- X,Y,Z ==> Vertex 1 {m}
    64.70904,9.97759752,0,  !- X,Y,Z ==> Vertex 2 {m}
    49.106328,9.97759752,0,  !- X,Y,Z ==> Vertex 3 {m}
    49.106328,9.97759752,3.9624;  !- X,Y,Z ==> Vertex 4 {m}

  BuildingSurface:Detailed,
    E3 South Wall (G.SW1.E1),!- Name
    Wall,                    !- Surface Type
    Exterior Wall,           !- Construction Name
    Dining E3 SW Perim (G.SW1),  !- Zone Name
    ,                        !- Space Name
    Outdoors,                !- Outside Boundary Condition
    ,                        !- Outside Boundary Condition Object
    SunExposed,              !- Sun Exposure
    WindExposed,             !- Wind Exposure
    ,                        !- View Factor to Ground
    ,                        !- Number of Vertices
    34.76244,0,3.9624,  !- X,Y,Z ==> Vertex 1 {m}
    34.76244,0,0,  !- X,Y,Z ==> Vertex 2 {m}
    64.70904,0,0,  !- X,Y,Z ==> Vertex 3 {m}
    64.70904,0,3.9624;  !- X,Y,Z ==> Vertex 4 {m}

  BuildingSurface:Detailed,
    E4 Ceiling (G.C5.I16)-mirror,  !- Name
    Floor,                   !- Surface Type
    Interior Floor,          !- Construction Name
    E4 Core Plnm (G.C11),    !- Zone Name
    ,                        !- Space Name
    Surface,                 !- Outside Boundary Condition
    E4 Ceiling (G.C5.I16)-mirror Reversed,  !- Outside Boundary Condition Object
    NoSun,                   !- Sun Exposure
    NoWind,                  !- Wind Exposure
    ,                        !- View Factor to Ground
    ,                        !- Number of Vertices
    32.586168,16.45161048,6.7056,  !- X,Y,Z ==> Vertex 1 {m}
    32.586168,9.1821,6.7056,  !- X,Y,Z ==> Vertex 2 {m}
    22.73811048,9.1821,6.7056,  !- X,Y,Z ==> Vertex 3 {m}
    22.73811048,16.45161048,6.7056;  !- X,Y,Z ==> Vertex 4 {m}

  BuildingSurface:Detailed,
    E4 Ceiling (G.C5.I16)-mirror Reversed,  !- Name
    Ceiling,                 !- Surface Type
    Radiant Interior Ceiling,!- Construction Name
    Computer Classroom E4 Core Spc (G.C5),  !- Zone Name
    ,                        !- Space Name
    Surface,                 !- Outside Boundary Condition
    E4 Ceiling (G.C5.I16)-mirror,  !- Outside Boundary Condition Object
    NoSun,                   !- Sun Exposure
    NoWind,                  !- Wind Exposure
    ,                        !- View Factor to Ground
    ,                        !- Number of Vertices
    32.586168,9.1821,6.7056,  !- X,Y,Z ==> Vertex 1 {m}
    32.586168,16.45161048,6.7056,  !- X,Y,Z ==> Vertex 2 {m}
    22.73811048,16.45161048,6.7056,  !- X,Y,Z ==> Vertex 3 {m}
    22.73811048,9.1821,6.7056;  !- X,Y,Z ==> Vertex 4 {m}

  BuildingSurface:Detailed,
    E4 Ceiling (G.C6.I17)-mirror,  !- Name
    Floor,                   !- Surface Type
    Interior Floor,          !- Construction Name
    E4 Core Plnm (G.C12),    !- Zone Name
    ,                        !- Space Name
    Surface,                 !- Outside Boundary Condition
    E4 Ceiling (G.C6.I17)-mirror Reversed,  !- Outside Boundary Condition Object
    NoSun,                   !- Sun Exposure
    NoWind,                  !- Wind Exposure
    ,                        !- View Factor to Ground
    ,                        !- Number of Vertices
    55.56504,16.45161048,6.7056,  !- X,Y,Z ==> Vertex 1 {m}
    55.56504,9.1821,6.7056,  !- X,Y,Z ==> Vertex 2 {m}
    32.586168,9.1821,6.7056,  !- X,Y,Z ==> Vertex 3 {m}
    32.586168,16.45161048,6.7056;  !- X,Y,Z ==> Vertex 4 {m}

  BuildingSurface:Detailed,
    E4 Ceiling (G.C6.I17)-mirror Reversed,  !- Name
    Ceiling,                 !- Surface Type
    Radiant Interior Ceiling,!- Construction Name
    Classroom E4 Core (G.C6),!- Zone Name
    ,                        !- Space Name
    Surface,                 !- Outside Boundary Condition
    E4 Ceiling (G.C6.I17)-mirror,  !- Outside Boundary Condition Object
    NoSun,                   !- Sun Exposure
    NoWind,                  !- Wind Exposure
    ,                        !- View Factor to Ground
    ,                        !- Number of Vertices
    55.56504,9.1821,6.7056,  !- X,Y,Z ==> Vertex 1 {m}
    55.56504,16.45161048,6.7056,  !- X,Y,Z ==> Vertex 2 {m}
    32.586168,16.45161048,6.7056,  !- X,Y,Z ==> Vertex 3 {m}
    32.586168,9.1821,6.7056;  !- X,Y,Z ==> Vertex 4 {m}

  BuildingSurface:Detailed,
    E4 Ceiling (G.E2.I7)-mirror,  !- Name
    Floor,                   !- Surface Type
    Interior Floor,          !- Construction Name
    E4 East Perim Plnm (G.E8),  !- Zone Name
    ,                        !- Space Name
    Surface,                 !- Outside Boundary Condition
    E4 Ceiling (G.E2.I7)-mirror Reversed,  !- Outside Boundary Condition Object
    NoSun,                   !- Sun Exposure
    NoWind,                  !- Wind Exposure
    ,                        !- View Factor to Ground
    ,                        !- Number of Vertices
    64.70904,25.63371048,6.7056,  !- X,Y,Z ==> Vertex 1 {m}
    64.70904,0,6.7056,  !- X,Y,Z ==> Vertex 2 {m}
    55.56504,9.1821,6.7056,  !- X,Y,Z ==> Vertex 3 {m}
    55.56504,16.45161048,6.7056;  !- X,Y,Z ==> Vertex 4 {m}

  BuildingSurface:Detailed,
    E4 Ceiling (G.E2.I7)-mirror Reversed,  !- Name
    Ceiling,                 !- Surface Type
    Radiant Interior Ceiling,!- Construction Name
    Classroom E4 East Perim (G.E2),  !- Zone Name
    ,                        !- Space Name
    Surface,                 !- Outside Boundary Condition
    E4 Ceiling (G.E2.I7)-mirror,  !- Outside Boundary Condition Object
    NoSun,                   !- Sun Exposure
    NoWind,                  !- Wind Exposure
    ,                        !- View Factor to Ground
    ,                        !- Number of Vertices
    64.70904,0,6.7056,  !- X,Y,Z ==> Vertex 1 {m}
    64.70904,25.63371048,6.7056,  !- X,Y,Z ==> Vertex 2 {m}
    55.56504,16.45161048,6.7056,  !- X,Y,Z ==> Vertex 3 {m}
    55.56504,9.1821,6.7056;  !- X,Y,Z ==> Vertex 4 {m}

  BuildingSurface:Detailed,
    E4 Ceiling (G.N3.I12)-mirror 1,  !- Name
    Floor,                   !- Surface Type
    Interior Floor,          !- Construction Name
    E4 North Perim Plnm (G.N9),  !- Zone Name
    ,                        !- Space Name
    Surface,                 !- Outside Boundary Condition
    E4 Ceiling (G.N3.I12)-mirror 1 Reversed,  !- Outside Boundary Condition Object
    NoSun,                   !- Sun Exposure
    NoWind,                  !- Wind Exposure
    ,                        !- View Factor to Ground
    ,                        !- Number of Vertices
    64.70904,25.63371048,6.7056,  !- X,Y,Z ==> Vertex 1 {m}
    55.56504,16.45161048,6.7056,  !- X,Y,Z ==> Vertex 2 {m}
    22.73811048,16.45161048,6.7056,  !- X,Y,Z ==> Vertex 3 {m}
    13.59411048,25.63371048,6.7056;  !- X,Y,Z ==> Vertex 4 {m}

  BuildingSurface:Detailed,
    E4 Ceiling (G.N3.I12)-mirror 1 Reversed,  !- Name
    Ceiling,                 !- Surface Type
    Radiant Interior Ceiling,!- Construction Name
    Classroom E4 North Perim (G.N3),  !- Zone Name
    ,                        !- Space Name
    Surface,                 !- Outside Boundary Condition
    E4 Ceiling (G.N3.I12)-mirror 1,  !- Outside Boundary Condition Object
    NoSun,                   !- Sun Exposure
    NoWind,                  !- Wind Exposure
    ,                        !- View Factor to Ground
    ,                        !- Number of Vertices
    55.56504,16.45161048,6.7056,  !- X,Y,Z ==> Vertex 1 {m}
    64.70904,25.63371048,6.7056,  !- X,Y,Z ==> Vertex 2 {m}
    13.59411048,25.63371048,6.7056,  !- X,Y,Z ==> Vertex 3 {m}
    22.73811048,16.45161048,6.7056;  !- X,Y,Z ==> Vertex 4 {m}

  BuildingSurface:Detailed,
    E4 Ceiling (G.S1.I5)-mirror,  !- Name
    Floor,                   !- Surface Type
    Interior Floor,          !- Construction Name
    E4 South Perim Plnm (G.S7),  !- Zone Name
    ,                        !- Space Name
    Surface,                 !- Outside Boundary Condition
    E4 Ceiling (G.S1.I5)-mirror Reversed,  !- Outside Boundary Condition Object
    NoSun,                   !- Sun Exposure
    NoWind,                  !- Wind Exposure
    ,                        !- View Factor to Ground
    ,                        !- Number of Vertices
    55.56504,9.1821,6.7056,  !- X,Y,Z ==> Vertex 1 {m}
    64.70904,0,6.7056,  !- X,Y,Z ==> Vertex 2 {m}
    13.59411048,0,6.7056,  !- X,Y,Z ==> Vertex 3 {m}
    22.73811048,9.1821,6.7056;  !- X,Y,Z ==> Vertex 4 {m}

  BuildingSurface:Detailed,
    E4 Ceiling (G.S1.I5)-mirror Reversed,  !- Name
    Ceiling,                 !- Surface Type
    Radiant Interior Ceiling,!- Construction Name
    Classroom E4 South Perim (G.S1),  !- Zone Name
    ,                        !- Space Name
    Surface,                 !- Outside Boundary Condition
    E4 Ceiling (G.S1.I5)-mirror,  !- Outside Boundary Condition Object
    NoSun,                   !- Sun Exposure
    NoWind,                  !- Wind Exposure
    ,                        !- View Factor to Ground
    ,                        !- Number of Vertices
    64.70904,0,6.7056,  !- X,Y,Z ==> Vertex 1 {m}
    55.56504,9.1821,6.7056,  !- X,Y,Z ==> Vertex 2 {m}
    22.73811048,9.1821,6.7056,  !- X,Y,Z ==> Vertex 3 {m}
    13.59411048,0,6.7056;  !- X,Y,Z ==> Vertex 4 {m}

  BuildingSurface:Detailed,
    E4 Ceiling (G.W4.I14)-mirror,  !- Name
    Floor,                   !- Surface Type
    Interior Floor,          !- Construction Name
    E4 West Perim Plnm (G.W10),  !- Zone Name
    ,                        !- Space Name
    Surface,                 !- Outside Boundary Condition
    E4 Ceiling (G.W4.I14)-mirror Reversed,  !- Outside Boundary Condition Object
    NoSun,                   !- Sun Exposure
    NoWind,                  !- Wind Exposure
    ,                        !- View Factor to Ground
    ,                        !- Number of Vertices
    13.59411048,25.63371048,6.7056,  !- X,Y,Z ==> Vertex 1 {m}
    22.73811048,16.45161048,6.7056,  !- X,Y,Z ==> Vertex 2 {m}
    22.73811048,9.1821,6.7056,  !- X,Y,Z ==> Vertex 3 {m}
    13.59411048,0,6.7056;  !- X,Y,Z ==> Vertex 4 {m}

  BuildingSurface:Detailed,
    E4 Ceiling (G.W4.I14)-mirror Reversed,  !- Name
    Ceiling,                 !- Surface Type
    Radiant Interior Ceiling,!- Construction Name
    Classroom E4 West Perim (G.W4),  !- Zone Name
    ,                        !- Space Name
    Surface,                 !- Outside Boundary Condition
    E4 Ceiling (G.W4.I14)-mirror,  !- Outside Boundary Condition Object
    NoSun,                   !- Sun Exposure
    NoWind,                  !- Wind Exposure
    ,                        !- View Factor to Ground
    ,                        !- Number of Vertices
    13.59411048,0,6.7056,  !- X,Y,Z ==> Vertex 1 {m}
    22.73811048,9.1821,6.7056,  !- X,Y,Z ==> Vertex 2 {m}
    22.73811048,16.45161048,6.7056,  !- X,Y,Z ==> Vertex 3 {m}
    13.59411048,25.63371048,6.7056;  !- X,Y,Z ==> Vertex 4 {m}

  BuildingSurface:Detailed,
    E4 Core Spc (G.C6) - Floor_a,  !- Name
    Floor,                   !- Surface Type
    Interior Floor,          !- Construction Name
    Classroom E4 Core (G.C6),!- Zone Name
    ,                        !- Space Name
    Surface,                 !- Outside Boundary Condition
    E4 Core Spc (G.C6) - Floor_a Reversed,  !- Outside Boundary Condition Object
    NoSun,                   !- Sun Exposure
    NoWind,                  !- Wind Exposure
    ,                        !- View Factor to Ground
    ,                        !- Number of Vertices
    55.56504,16.45161048,3.9624,  !- X,Y,Z ==> Vertex 1 {m}
    55.56504,9.97759752,3.9624,  !- X,Y,Z ==> Vertex 2 {m}
    49.106328,9.97759752,3.9624,  !- X,Y,Z ==> Vertex 3 {m}
    49.106328,16.45161048,3.9624;  !- X,Y,Z ==> Vertex 4 {m}

  BuildingSurface:Detailed,
    E4 Core Spc (G.C6) - Floor_a Reversed,  !- Name
    Ceiling,                 !- Surface Type
    Radiant Interior Ceiling,!- Construction Name
    Kitchen E3 NE Perim (G.NE2),  !- Zone Name
    ,                        !- Space Name
    Surface,                 !- Outside Boundary Condition
    E4 Core Spc (G.C6) - Floor_a,  !- Outside Boundary Condition Object
    NoSun,                   !- Sun Exposure
    NoWind,                  !- Wind Exposure
    ,                        !- View Factor to Ground
    ,                        !- Number of Vertices
    55.56504,9.97759752,3.9624,  !- X,Y,Z ==> Vertex 1 {m}
    55.56504,16.45161048,3.9624,  !- X,Y,Z ==> Vertex 2 {m}
    49.106328,16.45161048,3.9624,  !- X,Y,Z ==> Vertex 3 {m}
    49.106328,9.97759752,3.9624;  !- X,Y,Z ==> Vertex 4 {m}

  BuildingSurface:Detailed,
    E4 Core Spc (G.C6) - Floor_b,  !- Name
    Floor,                   !- Surface Type
    Interior Floor,          !- Construction Name
    Classroom E4 Core (G.C6),!- Zone Name
    ,                        !- Space Name
    Surface,                 !- Outside Boundary Condition
    E4 Core Spc (G.C6) - Floor_b Reversed,  !- Outside Boundary Condition Object
    NoSun,                   !- Sun Exposure
    NoWind,                  !- Wind Exposure
    ,                        !- View Factor to Ground
    ,                        !- Number of Vertices
    34.76244,16.45161048,3.9624,  !- X,Y,Z ==> Vertex 1 {m}
    34.76244,9.1821,3.9624,  !- X,Y,Z ==> Vertex 2 {m}
    32.586168,9.1821,3.9624,  !- X,Y,Z ==> Vertex 3 {m}
    32.586168,16.45161048,3.9624;  !- X,Y,Z ==> Vertex 4 {m}

  BuildingSurface:Detailed,
    E4 Core Spc (G.C6) - Floor_b Reversed,  !- Name
    Ceiling,                 !- Surface Type
    Radiant Interior Ceiling,!- Construction Name
    E2 West Perim Plnm (G.W4),  !- Zone Name
    ,                        !- Space Name
    Surface,                 !- Outside Boundary Condition
    E4 Core Spc (G.C6) - Floor_b,  !- Outside Boundary Condition Object
    NoSun,                   !- Sun Exposure
    NoWind,                  !- Wind Exposure
    ,                        !- View Factor to Ground
    ,                        !- Number of Vertices
    34.76244,9.1821,3.9624,  !- X,Y,Z ==> Vertex 1 {m}
    34.76244,16.45161048,3.9624,  !- X,Y,Z ==> Vertex 2 {m}
    32.586168,16.45161048,3.9624,  !- X,Y,Z ==> Vertex 3 {m}
    32.586168,9.1821,3.9624;  !- X,Y,Z ==> Vertex 4 {m}

  BuildingSurface:Detailed,
    E4 East Perim Spc (G.E2) - Floor_a,  !- Name
    Floor,                   !- Surface Type
    Interior Floor,          !- Construction Name
    Classroom E4 East Perim (G.E2),  !- Zone Name
    ,                        !- Space Name
    Surface,                 !- Outside Boundary Condition
    E4 East Perim Spc (G.E2) - Floor_a Reversed,  !- Outside Boundary Condition Object
    NoSun,                   !- Sun Exposure
    NoWind,                  !- Wind Exposure
    ,                        !- View Factor to Ground
    ,                        !- Number of Vertices
    64.70904,25.63371048,3.9624,  !- X,Y,Z ==> Vertex 1 {m}
    64.70904,9.97759752,3.9624,  !- X,Y,Z ==> Vertex 2 {m}
    55.56504,9.97759752,3.9624,  !- X,Y,Z ==> Vertex 3 {m}
    55.56504,16.45161048,3.9624;  !- X,Y,Z ==> Vertex 4 {m}

  BuildingSurface:Detailed,
    E4 East Perim Spc (G.E2) - Floor_a Reversed,  !- Name
    Ceiling,                 !- Surface Type
    Radiant Interior Ceiling,!- Construction Name
    Kitchen E3 NE Perim (G.NE2),  !- Zone Name
    ,                        !- Space Name
    Surface,                 !- Outside Boundary Condition
    E4 East Perim Spc (G.E2) - Floor_a,  !- Outside Boundary Condition Object
    NoSun,                   !- Sun Exposure
    NoWind,                  !- Wind Exposure
    ,                        !- View Factor to Ground
    ,                        !- Number of Vertices
    64.70904,9.97759752,3.9624,  !- X,Y,Z ==> Vertex 1 {m}
    64.70904,25.63371048,3.9624,  !- X,Y,Z ==> Vertex 2 {m}
    55.56504,16.45161048,3.9624,  !- X,Y,Z ==> Vertex 3 {m}
    55.56504,9.97759752,3.9624;  !- X,Y,Z ==> Vertex 4 {m}

  BuildingSurface:Detailed,
    E4 East Wall (G.C11.I28),!- Name
    Wall,                    !- Surface Type
    Interior Wall,           !- Construction Name
    E4 Core Plnm (G.C11),    !- Zone Name
    ,                        !- Space Name
    Surface,                 !- Outside Boundary Condition
    E4 East Wall (G.C11.I28) Reversed,  !- Outside Boundary Condition Object
    NoSun,                   !- Sun Exposure
    NoWind,                  !- Wind Exposure
    ,                        !- View Factor to Ground
    ,                        !- Number of Vertices
    32.586168,9.1821,7.9248,  !- X,Y,Z ==> Vertex 1 {m}
    32.586168,9.1821,6.7056,  !- X,Y,Z ==> Vertex 2 {m}
    32.586168,16.45161048,6.7056,  !- X,Y,Z ==> Vertex 3 {m}
    32.586168,16.45161048,7.9248;  !- X,Y,Z ==> Vertex 4 {m}

  BuildingSurface:Detailed,
    E4 East Wall (G.C11.I28) Reversed,  !- Name
    Wall,                    !- Surface Type
    Interior Wall,           !- Construction Name
    E4 Core Plnm (G.C12),    !- Zone Name
    ,                        !- Space Name
    Surface,                 !- Outside Boundary Condition
    E4 East Wall (G.C11.I28),!- Outside Boundary Condition Object
    NoSun,                   !- Sun Exposure
    NoWind,                  !- Wind Exposure
    ,                        !- View Factor to Ground
    ,                        !- Number of Vertices
    32.586168,16.45161048,7.9248,  !- X,Y,Z ==> Vertex 1 {m}
    32.586168,16.45161048,6.7056,  !- X,Y,Z ==> Vertex 2 {m}
    32.586168,9.1821,6.7056,  !- X,Y,Z ==> Vertex 3 {m}
    32.586168,9.1821,7.9248;  !- X,Y,Z ==> Vertex 4 {m}

  BuildingSurface:Detailed,
    E4 East Wall (G.C5.I15), !- Name
    Wall,                    !- Surface Type
    Interior Wall,           !- Construction Name
    Computer Classroom E4 Core Spc (G.C5),  !- Zone Name
    ,                        !- Space Name
    Surface,                 !- Outside Boundary Condition
    E4 East Wall (G.C5.I15) Reversed,  !- Outside Boundary Condition Object
    NoSun,                   !- Sun Exposure
    NoWind,                  !- Wind Exposure
    ,                        !- View Factor to Ground
    ,                        !- Number of Vertices
    32.586168,9.1821,6.7056,  !- X,Y,Z ==> Vertex 1 {m}
    32.586168,9.1821,3.9624,  !- X,Y,Z ==> Vertex 2 {m}
    32.586168,16.45161048,3.9624,  !- X,Y,Z ==> Vertex 3 {m}
    32.586168,16.45161048,6.7056;  !- X,Y,Z ==> Vertex 4 {m}

  BuildingSurface:Detailed,
    E4 East Wall (G.C5.I15) Reversed,  !- Name
    Wall,                    !- Surface Type
    Interior Wall,           !- Construction Name
    Classroom E4 Core (G.C6),!- Zone Name
    ,                        !- Space Name
    Surface,                 !- Outside Boundary Condition
    E4 East Wall (G.C5.I15), !- Outside Boundary Condition Object
    NoSun,                   !- Sun Exposure
    NoWind,                  !- Wind Exposure
    ,                        !- View Factor to Ground
    ,                        !- Number of Vertices
    32.586168,16.45161048,6.7056,  !- X,Y,Z ==> Vertex 1 {m}
    32.586168,16.45161048,3.9624,  !- X,Y,Z ==> Vertex 2 {m}
    32.586168,9.1821,3.9624,  !- X,Y,Z ==> Vertex 3 {m}
    32.586168,9.1821,6.7056;  !- X,Y,Z ==> Vertex 4 {m}

  BuildingSurface:Detailed,
    E4 East Wall (G.E2.E2),  !- Name
    Wall,                    !- Surface Type
    Exterior Wall,           !- Construction Name
    Classroom E4 East Perim (G.E2),  !- Zone Name
    ,                        !- Space Name
    Outdoors,                !- Outside Boundary Condition
    ,                        !- Outside Boundary Condition Object
    SunExposed,              !- Sun Exposure
    WindExposed,             !- Wind Exposure
    ,                        !- View Factor to Ground
    ,                        !- Number of Vertices
    64.70904,0,6.7056,  !- X,Y,Z ==> Vertex 1 {m}
    64.70904,0,3.9624,  !- X,Y,Z ==> Vertex 2 {m}
    64.70904,25.63371048,3.9624,  !- X,Y,Z ==> Vertex 3 {m}
    64.70904,25.63371048,6.7056;  !- X,Y,Z ==> Vertex 4 {m}

  BuildingSurface:Detailed,
    E4 East Wall (G.E8.E7),  !- Name
    Wall,                    !- Surface Type
    Exterior Wall,           !- Construction Name
    E4 East Perim Plnm (G.E8),  !- Zone Name
    ,                        !- Space Name
    Outdoors,                !- Outside Boundary Condition
    ,                        !- Outside Boundary Condition Object
    SunExposed,              !- Sun Exposure
    WindExposed,             !- Wind Exposure
    ,                        !- View Factor to Ground
    ,                        !- Number of Vertices
    64.70904,0,7.9248,  !- X,Y,Z ==> Vertex 1 {m}
    64.70904,0,6.7056,  !- X,Y,Z ==> Vertex 2 {m}
    64.70904,25.63371048,6.7056,  !- X,Y,Z ==> Vertex 3 {m}
    64.70904,25.63371048,7.9248;  !- X,Y,Z ==> Vertex 4 {m}

  BuildingSurface:Detailed,
    E4 East Wall (G.W10.I27)-mirror,  !- Name
    Wall,                    !- Surface Type
    Interior Wall,           !- Construction Name
    E4 Core Plnm (G.C11),    !- Zone Name
    ,                        !- Space Name
    Surface,                 !- Outside Boundary Condition
    E4 East Wall (G.W10.I27)-mirror Reversed,  !- Outside Boundary Condition Object
    NoSun,                   !- Sun Exposure
    NoWind,                  !- Wind Exposure
    ,                        !- View Factor to Ground
    ,                        !- Number of Vertices
    22.73811048,16.45161048,7.9248,  !- X,Y,Z ==> Vertex 1 {m}
    22.73811048,16.45161048,6.7056,  !- X,Y,Z ==> Vertex 2 {m}
    22.73811048,9.1821,6.7056,  !- X,Y,Z ==> Vertex 3 {m}
    22.73811048,9.1821,7.9248;  !- X,Y,Z ==> Vertex 4 {m}

  BuildingSurface:Detailed,
    E4 East Wall (G.W10.I27)-mirror Reversed,  !- Name
    Wall,                    !- Surface Type
    Interior Wall,           !- Construction Name
    E4 West Perim Plnm (G.W10),  !- Zone Name
    ,                        !- Space Name
    Surface,                 !- Outside Boundary Condition
    E4 East Wall (G.W10.I27)-mirror,  !- Outside Boundary Condition Object
    NoSun,                   !- Sun Exposure
    NoWind,                  !- Wind Exposure
    ,                        !- View Factor to Ground
    ,                        !- Number of Vertices
    22.73811048,9.1821,7.9248,  !- X,Y,Z ==> Vertex 1 {m}
    22.73811048,9.1821,6.7056,  !- X,Y,Z ==> Vertex 2 {m}
    22.73811048,16.45161048,6.7056,  !- X,Y,Z ==> Vertex 3 {m}
    22.73811048,16.45161048,7.9248;  !- X,Y,Z ==> Vertex 4 {m}

  BuildingSurface:Detailed,
    E4 East Wall (G.W4.I13)-mirror,  !- Name
    Wall,                    !- Surface Type
    Interior Wall,           !- Construction Name
    Computer Classroom E4 Core Spc (G.C5),  !- Zone Name
    ,                        !- Space Name
    Surface,                 !- Outside Boundary Condition
    E4 East Wall (G.W4.I13)-mirror Reversed,  !- Outside Boundary Condition Object
    NoSun,                   !- Sun Exposure
    NoWind,                  !- Wind Exposure
    ,                        !- View Factor to Ground
    ,                        !- Number of Vertices
    22.73811048,16.45161048,6.7056,  !- X,Y,Z ==> Vertex 1 {m}
    22.73811048,16.45161048,3.9624,  !- X,Y,Z ==> Vertex 2 {m}
    22.73811048,9.1821,3.9624,  !- X,Y,Z ==> Vertex 3 {m}
    22.73811048,9.1821,6.7056;  !- X,Y,Z ==> Vertex 4 {m}

  BuildingSurface:Detailed,
    E4 East Wall (G.W4.I13)-mirror Reversed,  !- Name
    Wall,                    !- Surface Type
    Interior Wall,           !- Construction Name
    Classroom E4 West Perim (G.W4),  !- Zone Name
    ,                        !- Space Name
    Surface,                 !- Outside Boundary Condition
    E4 East Wall (G.W4.I13)-mirror,  !- Outside Boundary Condition Object
    NoSun,                   !- Sun Exposure
    NoWind,                  !- Wind Exposure
    ,                        !- View Factor to Ground
    ,                        !- Number of Vertices
    22.73811048,9.1821,6.7056,  !- X,Y,Z ==> Vertex 1 {m}
    22.73811048,9.1821,3.9624,  !- X,Y,Z ==> Vertex 2 {m}
    22.73811048,16.45161048,3.9624,  !- X,Y,Z ==> Vertex 3 {m}
    22.73811048,16.45161048,6.7056;  !- X,Y,Z ==> Vertex 4 {m}

  BuildingSurface:Detailed,
    E4 Flr (G.C5.U5),        !- Name
    Floor,                   !- Surface Type
    Interior Floor,          !- Construction Name
    Computer Classroom E4 Core Spc (G.C5),  !- Zone Name
    ,                        !- Space Name
    Surface,                 !- Outside Boundary Condition
    E4 Flr (G.C5.U5) Reversed,  !- Outside Boundary Condition Object
    NoSun,                   !- Sun Exposure
    NoWind,                  !- Wind Exposure
    ,                        !- View Factor to Ground
    ,                        !- Number of Vertices
    32.586168,16.45161048,3.9624,  !- X,Y,Z ==> Vertex 1 {m}
    32.586168,9.1821,3.9624,  !- X,Y,Z ==> Vertex 2 {m}
    22.73811048,9.1821,3.9624,  !- X,Y,Z ==> Vertex 3 {m}
    22.73811048,16.45161048,3.9624;  !- X,Y,Z ==> Vertex 4 {m}

  BuildingSurface:Detailed,
    E4 Flr (G.C5.U5) Reversed,  !- Name
    Ceiling,                 !- Surface Type
    Radiant Interior Ceiling,!- Construction Name
    E2 West Perim Plnm (G.W4),  !- Zone Name
    ,                        !- Space Name
    Surface,                 !- Outside Boundary Condition
    E4 Flr (G.C5.U5),        !- Outside Boundary Condition Object
    NoSun,                   !- Sun Exposure
    NoWind,                  !- Wind Exposure
    ,                        !- View Factor to Ground
    ,                        !- Number of Vertices
    32.586168,9.1821,3.9624,  !- X,Y,Z ==> Vertex 1 {m}
    32.586168,16.45161048,3.9624,  !- X,Y,Z ==> Vertex 2 {m}
    22.73811048,16.45161048,3.9624,  !- X,Y,Z ==> Vertex 3 {m}
    22.73811048,9.1821,3.9624;  !- X,Y,Z ==> Vertex 4 {m}

  BuildingSurface:Detailed,
    E4 Flr (G.C6.U6,         !- Name
    Floor,                   !- Surface Type
    Interior Floor,          !- Construction Name
    Classroom E4 Core (G.C6),!- Zone Name
    ,                        !- Space Name
    Surface,                 !- Outside Boundary Condition
    E4 Flr (G.C6.U6 Reversed,!- Outside Boundary Condition Object
    NoSun,                   !- Sun Exposure
    NoWind,                  !- Wind Exposure
    ,                        !- View Factor to Ground
    ,                        !- Number of Vertices
    49.106328,16.45161048,3.9624,  !- X,Y,Z ==> Vertex 1 {m}
    49.106328,9.97759752,3.9624,  !- X,Y,Z ==> Vertex 2 {m}
    55.56504,9.97759752,3.9624,  !- X,Y,Z ==> Vertex 3 {m}
    55.56504,9.1821,3.9624,  !- X,Y,Z ==> Vertex 4 {m}
    34.76244,9.1821,3.9624,  !- X,Y,Z ==> Vertex 5 {m}
    34.76244,16.45161048,3.9624;  !- X,Y,Z ==> Vertex 6 {m}

  BuildingSurface:Detailed,
    E4 Flr (G.C6.U6 Reversed,!- Name
    Ceiling,                 !- Surface Type
    Radiant Interior Ceiling,!- Construction Name
    Dining E3 SW Perim (G.SW1),  !- Zone Name
    ,                        !- Space Name
    Surface,                 !- Outside Boundary Condition
    E4 Flr (G.C6.U6,         !- Outside Boundary Condition Object
    NoSun,                   !- Sun Exposure
    NoWind,                  !- Wind Exposure
    ,                        !- View Factor to Ground
    ,                        !- Number of Vertices
    55.56504,9.1821,3.9624,  !- X,Y,Z ==> Vertex 1 {m}
    55.56504,9.97759752,3.9624,  !- X,Y,Z ==> Vertex 2 {m}
    49.106328,9.97759752,3.9624,  !- X,Y,Z ==> Vertex 3 {m}
    49.106328,16.45161048,3.9624,  !- X,Y,Z ==> Vertex 4 {m}
    34.76244,16.45161048,3.9624,  !- X,Y,Z ==> Vertex 5 {m}
    34.76244,9.1821,3.9624;  !- X,Y,Z ==> Vertex 6 {m}

  BuildingSurface:Detailed,
    E4 Flr (G.E2.U2),        !- Name
    Floor,                   !- Surface Type
    Interior Floor,          !- Construction Name
    Classroom E4 East Perim (G.E2),  !- Zone Name
    ,                        !- Space Name
    Surface,                 !- Outside Boundary Condition
    E4 Flr (G.E2.U2) Reversed,  !- Outside Boundary Condition Object
    NoSun,                   !- Sun Exposure
    NoWind,                  !- Wind Exposure
    ,                        !- View Factor to Ground
    ,                        !- Number of Vertices
    64.70904,9.97759752,3.9624,  !- X,Y,Z ==> Vertex 1 {m}
    64.70904,0,3.9624,  !- X,Y,Z ==> Vertex 2 {m}
    55.56504,9.1821,3.9624,  !- X,Y,Z ==> Vertex 3 {m}
    55.56504,9.97759752,3.9624;  !- X,Y,Z ==> Vertex 4 {m}

  BuildingSurface:Detailed,
    E4 Flr (G.E2.U2) Reversed,  !- Name
    Ceiling,                 !- Surface Type
    Radiant Interior Ceiling,!- Construction Name
    Dining E3 SW Perim (G.SW1),  !- Zone Name
    ,                        !- Space Name
    Surface,                 !- Outside Boundary Condition
    E4 Flr (G.E2.U2),        !- Outside Boundary Condition Object
    NoSun,                   !- Sun Exposure
    NoWind,                  !- Wind Exposure
    ,                        !- View Factor to Ground
    ,                        !- Number of Vertices
    64.70904,0,3.9624,  !- X,Y,Z ==> Vertex 1 {m}
    64.70904,9.97759752,3.9624,  !- X,Y,Z ==> Vertex 2 {m}
    55.56504,9.97759752,3.9624,  !- X,Y,Z ==> Vertex 3 {m}
    55.56504,9.1821,3.9624;  !- X,Y,Z ==> Vertex 4 {m}

  BuildingSurface:Detailed,
    E4 Flr (G.N3.U3),        !- Name
    Floor,                   !- Surface Type
    Interior Floor,          !- Construction Name
    Classroom E4 North Perim (G.N3),  !- Zone Name
    ,                        !- Space Name
    Surface,                 !- Outside Boundary Condition
    E4 Flr (G.N3.U3) Reversed,  !- Outside Boundary Condition Object
    NoSun,                   !- Sun Exposure
    NoWind,                  !- Wind Exposure
    ,                        !- View Factor to Ground
    ,                        !- Number of Vertices
    34.76244,25.63371048,3.9624,  !- X,Y,Z ==> Vertex 1 {m}
    34.76244,16.45161048,3.9624,  !- X,Y,Z ==> Vertex 2 {m}
    22.73811048,16.45161048,3.9624,  !- X,Y,Z ==> Vertex 3 {m}
    13.59411048,25.63371048,3.9624;  !- X,Y,Z ==> Vertex 4 {m}

  BuildingSurface:Detailed,
    E4 Flr (G.N3.U3) Reversed,  !- Name
    Ceiling,                 !- Surface Type
    Radiant Interior Ceiling,!- Construction Name
    E2 North Perim Plnm (G.N6),  !- Zone Name
    ,                        !- Space Name
    Surface,                 !- Outside Boundary Condition
    E4 Flr (G.N3.U3),        !- Outside Boundary Condition Object
    NoSun,                   !- Sun Exposure
    NoWind,                  !- Wind Exposure
    ,                        !- View Factor to Ground
    ,                        !- Number of Vertices
    34.76244,16.45161048,3.9624,  !- X,Y,Z ==> Vertex 1 {m}
    34.76244,25.63371048,3.9624,  !- X,Y,Z ==> Vertex 2 {m}
    13.59411048,25.63371048,3.9624,  !- X,Y,Z ==> Vertex 3 {m}
    22.73811048,16.45161048,3.9624;  !- X,Y,Z ==> Vertex 4 {m}

  BuildingSurface:Detailed,
    E4 Flr (G.S1.U1),        !- Name
    Floor,                   !- Surface Type
    Interior Floor,          !- Construction Name
    Classroom E4 South Perim (G.S1),  !- Zone Name
    ,                        !- Space Name
    Surface,                 !- Outside Boundary Condition
    E4 Flr (G.S1.U1) Reversed,  !- Outside Boundary Condition Object
    NoSun,                   !- Sun Exposure
    NoWind,                  !- Wind Exposure
    ,                        !- View Factor to Ground
    ,                        !- Number of Vertices
    55.56504,9.1821,3.9624,  !- X,Y,Z ==> Vertex 1 {m}
    64.70904,0,3.9624,  !- X,Y,Z ==> Vertex 2 {m}
    34.76244,0,3.9624,  !- X,Y,Z ==> Vertex 3 {m}
    34.76244,9.1821,3.9624;  !- X,Y,Z ==> Vertex 4 {m}

  BuildingSurface:Detailed,
    E4 Flr (G.S1.U1) Reversed,  !- Name
    Ceiling,                 !- Surface Type
    Radiant Interior Ceiling,!- Construction Name
    Dining E3 SW Perim (G.SW1),  !- Zone Name
    ,                        !- Space Name
    Surface,                 !- Outside Boundary Condition
    E4 Flr (G.S1.U1),        !- Outside Boundary Condition Object
    NoSun,                   !- Sun Exposure
    NoWind,                  !- Wind Exposure
    ,                        !- View Factor to Ground
    ,                        !- Number of Vertices
    64.70904,0,3.9624,  !- X,Y,Z ==> Vertex 1 {m}
    55.56504,9.1821,3.9624,  !- X,Y,Z ==> Vertex 2 {m}
    34.76244,9.1821,3.9624,  !- X,Y,Z ==> Vertex 3 {m}
    34.76244,0,3.9624;  !- X,Y,Z ==> Vertex 4 {m}

  BuildingSurface:Detailed,
    E4 Flr (G.W4.U4),        !- Name
    Floor,                   !- Surface Type
    Interior Floor,          !- Construction Name
    Classroom E4 West Perim (G.W4),  !- Zone Name
    ,                        !- Space Name
    Surface,                 !- Outside Boundary Condition
    E4 Flr (G.W4.U4) Reversed,  !- Outside Boundary Condition Object
    NoSun,                   !- Sun Exposure
    NoWind,                  !- Wind Exposure
    ,                        !- View Factor to Ground
    ,                        !- Number of Vertices
    13.59411048,25.63371048,3.9624,  !- X,Y,Z ==> Vertex 1 {m}
    22.73811048,16.45161048,3.9624,  !- X,Y,Z ==> Vertex 2 {m}
    13.59411048,16.45161048,3.9624;  !- X,Y,Z ==> Vertex 3 {m}

  BuildingSurface:Detailed,
    E4 Flr (G.W4.U4) Reversed,  !- Name
    Ceiling,                 !- Surface Type
    Radiant Interior Ceiling,!- Construction Name
    E2 North Perim Plnm (G.N6),  !- Zone Name
    ,                        !- Space Name
    Surface,                 !- Outside Boundary Condition
    E4 Flr (G.W4.U4),        !- Outside Boundary Condition Object
    NoSun,                   !- Sun Exposure
    NoWind,                  !- Wind Exposure
    ,                        !- View Factor to Ground
    ,                        !- Number of Vertices
    22.73811048,16.45161048,3.9624,  !- X,Y,Z ==> Vertex 1 {m}
    13.59411048,25.63371048,3.9624,  !- X,Y,Z ==> Vertex 2 {m}
    13.59411048,16.45161048,3.9624;  !- X,Y,Z ==> Vertex 3 {m}

  BuildingSurface:Detailed,
    E4 NE Wall (G.S1.I1)-mirror,  !- Name
    Wall,                    !- Surface Type
    Interior Wall,           !- Construction Name
    Classroom E4 East Perim (G.E2),  !- Zone Name
    ,                        !- Space Name
    Surface,                 !- Outside Boundary Condition
    E4 NE Wall (G.S1.I1)-mirror Reversed,  !- Outside Boundary Condition Object
    NoSun,                   !- Sun Exposure
    NoWind,                  !- Wind Exposure
    ,                        !- View Factor to Ground
    ,                        !- Number of Vertices
    55.56504,9.1821,6.7056,  !- X,Y,Z ==> Vertex 1 {m}
    55.56504,9.1821,3.9624,  !- X,Y,Z ==> Vertex 2 {m}
    64.70904,0,3.9624,  !- X,Y,Z ==> Vertex 3 {m}
    64.70904,0,6.7056;  !- X,Y,Z ==> Vertex 4 {m}

  BuildingSurface:Detailed,
    E4 NE Wall (G.S1.I1)-mirror Reversed,  !- Name
    Wall,                    !- Surface Type
    Interior Wall,           !- Construction Name
    Classroom E4 South Perim (G.S1),  !- Zone Name
    ,                        !- Space Name
    Surface,                 !- Outside Boundary Condition
    E4 NE Wall (G.S1.I1)-mirror,  !- Outside Boundary Condition Object
    NoSun,                   !- Sun Exposure
    NoWind,                  !- Wind Exposure
    ,                        !- View Factor to Ground
    ,                        !- Number of Vertices
    64.70904,0,6.7056,  !- X,Y,Z ==> Vertex 1 {m}
    64.70904,0,3.9624,  !- X,Y,Z ==> Vertex 2 {m}
    55.56504,9.1821,3.9624,  !- X,Y,Z ==> Vertex 3 {m}
    55.56504,9.1821,6.7056;  !- X,Y,Z ==> Vertex 4 {m}

  BuildingSurface:Detailed,
    E4 NE Wall (G.S7.I18)-mirror,  !- Name
    Wall,                    !- Surface Type
    Interior Wall,           !- Construction Name
    E4 East Perim Plnm (G.E8),  !- Zone Name
    ,                        !- Space Name
    Surface,                 !- Outside Boundary Condition
    E4 NE Wall (G.S7.I18)-mirror Reversed,  !- Outside Boundary Condition Object
    NoSun,                   !- Sun Exposure
    NoWind,                  !- Wind Exposure
    ,                        !- View Factor to Ground
    ,                        !- Number of Vertices
    55.56504,9.1821,7.9248,  !- X,Y,Z ==> Vertex 1 {m}
    55.56504,9.1821,6.7056,  !- X,Y,Z ==> Vertex 2 {m}
    64.70904,0,6.7056,  !- X,Y,Z ==> Vertex 3 {m}
    64.70904,0,7.9248;  !- X,Y,Z ==> Vertex 4 {m}

  BuildingSurface:Detailed,
    E4 NE Wall (G.S7.I18)-mirror Reversed,  !- Name
    Wall,                    !- Surface Type
    Interior Wall,           !- Construction Name
    E4 South Perim Plnm (G.S7),  !- Zone Name
    ,                        !- Space Name
    Surface,                 !- Outside Boundary Condition
    E4 NE Wall (G.S7.I18)-mirror,  !- Outside Boundary Condition Object
    NoSun,                   !- Sun Exposure
    NoWind,                  !- Wind Exposure
    ,                        !- View Factor to Ground
    ,                        !- Number of Vertices
    64.70904,0,7.9248,  !- X,Y,Z ==> Vertex 1 {m}
    64.70904,0,6.7056,  !- X,Y,Z ==> Vertex 2 {m}
    55.56504,9.1821,6.7056,  !- X,Y,Z ==> Vertex 3 {m}
    55.56504,9.1821,7.9248;  !- X,Y,Z ==> Vertex 4 {m}

  BuildingSurface:Detailed,
    E4 NW Wall (G.S1.I4),    !- Name
    Wall,                    !- Surface Type
    Interior Wall,           !- Construction Name
    Classroom E4 South Perim (G.S1),  !- Zone Name
    ,                        !- Space Name
    Surface,                 !- Outside Boundary Condition
    E4 NW Wall (G.S1.I4) Reversed,  !- Outside Boundary Condition Object
    NoSun,                   !- Sun Exposure
    NoWind,                  !- Wind Exposure
    ,                        !- View Factor to Ground
    ,                        !- Number of Vertices
    22.73811048,9.1821,6.7056,  !- X,Y,Z ==> Vertex 1 {m}
    22.73811048,9.1821,3.9624,  !- X,Y,Z ==> Vertex 2 {m}
    13.59411048,2.54703072e-16,3.9624,  !- X,Y,Z ==> Vertex 3 {m}
    13.59411048,2.54703072e-16,6.7056;  !- X,Y,Z ==> Vertex 4 {m}

  BuildingSurface:Detailed,
    E4 NW Wall (G.S1.I4) Reversed,  !- Name
    Wall,                    !- Surface Type
    Interior Wall,           !- Construction Name
    Classroom E4 West Perim (G.W4),  !- Zone Name
    ,                        !- Space Name
    Surface,                 !- Outside Boundary Condition
    E4 NW Wall (G.S1.I4),    !- Outside Boundary Condition Object
    NoSun,                   !- Sun Exposure
    NoWind,                  !- Wind Exposure
    ,                        !- View Factor to Ground
    ,                        !- Number of Vertices
    13.59411048,2.54703072e-16,6.7056,  !- X,Y,Z ==> Vertex 1 {m}
    13.59411048,2.54703072e-16,3.9624,  !- X,Y,Z ==> Vertex 2 {m}
    22.73811048,9.1821,3.9624,  !- X,Y,Z ==> Vertex 3 {m}
    22.73811048,9.1821,6.7056;  !- X,Y,Z ==> Vertex 4 {m}

  BuildingSurface:Detailed,
    E4 NW Wall (G.S7.I21),   !- Name
    Wall,                    !- Surface Type
    Interior Wall,           !- Construction Name
    E4 South Perim Plnm (G.S7),  !- Zone Name
    ,                        !- Space Name
    Surface,                 !- Outside Boundary Condition
    E4 NW Wall (G.S7.I21) Reversed,  !- Outside Boundary Condition Object
    NoSun,                   !- Sun Exposure
    NoWind,                  !- Wind Exposure
    ,                        !- View Factor to Ground
    ,                        !- Number of Vertices
    22.73811048,9.1821,7.9248,  !- X,Y,Z ==> Vertex 1 {m}
    22.73811048,9.1821,6.7056,  !- X,Y,Z ==> Vertex 2 {m}
    13.59411048,2.54703072e-16,6.7056,  !- X,Y,Z ==> Vertex 3 {m}
    13.59411048,2.54703072e-16,7.9248;  !- X,Y,Z ==> Vertex 4 {m}

  BuildingSurface:Detailed,
    E4 NW Wall (G.S7.I21) Reversed,  !- Name
    Wall,                    !- Surface Type
    Interior Wall,           !- Construction Name
    E4 West Perim Plnm (G.W10),  !- Zone Name
    ,                        !- Space Name
    Surface,                 !- Outside Boundary Condition
    E4 NW Wall (G.S7.I21),   !- Outside Boundary Condition Object
    NoSun,                   !- Sun Exposure
    NoWind,                  !- Wind Exposure
    ,                        !- View Factor to Ground
    ,                        !- Number of Vertices
    13.59411048,2.54703072e-16,7.9248,  !- X,Y,Z ==> Vertex 1 {m}
    13.59411048,2.54703072e-16,6.7056,  !- X,Y,Z ==> Vertex 2 {m}
    22.73811048,9.1821,6.7056,  !- X,Y,Z ==> Vertex 3 {m}
    22.73811048,9.1821,7.9248;  !- X,Y,Z ==> Vertex 4 {m}

  BuildingSurface:Detailed,
    E4 North Perim Plnm (G.N9) - Wall 000_a,  !- Name
    Wall,                    !- Surface Type
    Exterior Wall,           !- Construction Name
    E4 North Perim Plnm (G.N9),  !- Zone Name
    ,                        !- Space Name
    Outdoors,                !- Outside Boundary Condition
    ,                        !- Outside Boundary Condition Object
    SunExposed,              !- Sun Exposure
    WindExposed,             !- Wind Exposure
    ,                        !- View Factor to Ground
    ,                        !- Number of Vertices
    64.70904,25.63371048,7.9248,  !- X,Y,Z ==> Vertex 1 {m}
    64.70904,25.63371048,6.7056,  !- X,Y,Z ==> Vertex 2 {m}
    13.59411048,25.63371048,6.7056,  !- X,Y,Z ==> Vertex 3 {m}
    13.59411048,25.63371048,7.9248;  !- X,Y,Z ==> Vertex 4 {m}

  BuildingSurface:Detailed,
    E4 North Perim Spc (G.N3) - Floor_a,  !- Name
    Floor,                   !- Surface Type
    Interior Floor,          !- Construction Name
    Classroom E4 North Perim (G.N3),  !- Zone Name
    ,                        !- Space Name
    Surface,                 !- Outside Boundary Condition
    E4 North Perim Spc (G.N3) - Floor_a Reversed,  !- Outside Boundary Condition Object
    NoSun,                   !- Sun Exposure
    NoWind,                  !- Wind Exposure
    ,                        !- View Factor to Ground
    ,                        !- Number of Vertices
    49.106328,25.63371048,3.9624,  !- X,Y,Z ==> Vertex 1 {m}
    49.106328,16.45161048,3.9624,  !- X,Y,Z ==> Vertex 2 {m}
    34.76244,16.45161048,3.9624,  !- X,Y,Z ==> Vertex 3 {m}
    34.76244,25.63371048,3.9624;  !- X,Y,Z ==> Vertex 4 {m}

  BuildingSurface:Detailed,
    E4 North Perim Spc (G.N3) - Floor_a Reversed,  !- Name
    Ceiling,                 !- Surface Type
    Radiant Interior Ceiling,!- Construction Name
    Dining E3 SW Perim (G.SW1),  !- Zone Name
    ,                        !- Space Name
    Surface,                 !- Outside Boundary Condition
    E4 North Perim Spc (G.N3) - Floor_a,  !- Outside Boundary Condition Object
    NoSun,                   !- Sun Exposure
    NoWind,                  !- Wind Exposure
    ,                        !- View Factor to Ground
    ,                        !- Number of Vertices
    49.106328,16.45161048,3.9624,  !- X,Y,Z ==> Vertex 1 {m}
    49.106328,25.63371048,3.9624,  !- X,Y,Z ==> Vertex 2 {m}
    34.76244,25.63371048,3.9624,  !- X,Y,Z ==> Vertex 3 {m}
    34.76244,16.45161048,3.9624;  !- X,Y,Z ==> Vertex 4 {m}

  BuildingSurface:Detailed,
    E4 North Perim Spc (G.N3) - Floor_b,  !- Name
    Floor,                   !- Surface Type
    Interior Floor,          !- Construction Name
    Classroom E4 North Perim (G.N3),  !- Zone Name
    ,                        !- Space Name
    Surface,                 !- Outside Boundary Condition
    E4 North Perim Spc (G.N3) - Floor_b Reversed,  !- Outside Boundary Condition Object
    NoSun,                   !- Sun Exposure
    NoWind,                  !- Wind Exposure
    ,                        !- View Factor to Ground
    ,                        !- Number of Vertices
    64.70904,25.63371048,3.9624,  !- X,Y,Z ==> Vertex 1 {m}
    55.56504,16.45161048,3.9624,  !- X,Y,Z ==> Vertex 2 {m}
    49.106328,16.45161048,3.9624,  !- X,Y,Z ==> Vertex 3 {m}
    49.106328,25.63371048,3.9624;  !- X,Y,Z ==> Vertex 4 {m}

  BuildingSurface:Detailed,
    E4 North Perim Spc (G.N3) - Floor_b Reversed,  !- Name
    Ceiling,                 !- Surface Type
    Radiant Interior Ceiling,!- Construction Name
    Kitchen E3 NE Perim (G.NE2),  !- Zone Name
    ,                        !- Space Name
    Surface,                 !- Outside Boundary Condition
    E4 North Perim Spc (G.N3) - Floor_b,  !- Outside Boundary Condition Object
    NoSun,                   !- Sun Exposure
    NoWind,                  !- Wind Exposure
    ,                        !- View Factor to Ground
    ,                        !- Number of Vertices
    55.56504,16.45161048,3.9624,  !- X,Y,Z ==> Vertex 1 {m}
    64.70904,25.63371048,3.9624,  !- X,Y,Z ==> Vertex 2 {m}
    49.106328,25.63371048,3.9624,  !- X,Y,Z ==> Vertex 3 {m}
    49.106328,16.45161048,3.9624;  !- X,Y,Z ==> Vertex 4 {m}

  BuildingSurface:Detailed,
    E4 North Wall (G.N3.E3), !- Name
    Wall,                    !- Surface Type
    Exterior Wall,           !- Construction Name
    Classroom E4 North Perim (G.N3),  !- Zone Name
    ,                        !- Space Name
    Outdoors,                !- Outside Boundary Condition
    ,                        !- Outside Boundary Condition Object
    SunExposed,              !- Sun Exposure
    WindExposed,             !- Wind Exposure
    ,                        !- View Factor to Ground
    ,                        !- Number of Vertices
    64.70904,25.63371048,6.7056,  !- X,Y,Z ==> Vertex 1 {m}
    64.70904,25.63371048,3.9624,  !- X,Y,Z ==> Vertex 2 {m}
    13.59411048,25.63371048,3.9624,  !- X,Y,Z ==> Vertex 3 {m}
    13.59411048,25.63371048,6.7056;  !- X,Y,Z ==> Vertex 4 {m}

  BuildingSurface:Detailed,
    E4 North Wall (G.S1.I2)-mirror,  !- Name
    Wall,                    !- Surface Type
    Interior Wall,           !- Construction Name
    Classroom E4 Core (G.C6),!- Zone Name
    ,                        !- Space Name
    Surface,                 !- Outside Boundary Condition
    E4 North Wall (G.S1.I2)-mirror Reversed,  !- Outside Boundary Condition Object
    NoSun,                   !- Sun Exposure
    NoWind,                  !- Wind Exposure
    ,                        !- View Factor to Ground
    ,                        !- Number of Vertices
    32.586168,9.1821,6.7056,  !- X,Y,Z ==> Vertex 1 {m}
    32.586168,9.1821,3.9624,  !- X,Y,Z ==> Vertex 2 {m}
    55.56504,9.1821,3.9624,  !- X,Y,Z ==> Vertex 3 {m}
    55.56504,9.1821,6.7056;  !- X,Y,Z ==> Vertex 4 {m}

  BuildingSurface:Detailed,
    E4 North Wall (G.S1.I2)-mirror Reversed,  !- Name
    Wall,                    !- Surface Type
    Interior Wall,           !- Construction Name
    Classroom E4 South Perim (G.S1),  !- Zone Name
    ,                        !- Space Name
    Surface,                 !- Outside Boundary Condition
    E4 North Wall (G.S1.I2)-mirror,  !- Outside Boundary Condition Object
    NoSun,                   !- Sun Exposure
    NoWind,                  !- Wind Exposure
    ,                        !- View Factor to Ground
    ,                        !- Number of Vertices
    55.56504,9.1821,6.7056,  !- X,Y,Z ==> Vertex 1 {m}
    55.56504,9.1821,3.9624,  !- X,Y,Z ==> Vertex 2 {m}
    32.586168,9.1821,3.9624,  !- X,Y,Z ==> Vertex 3 {m}
    32.586168,9.1821,6.7056;  !- X,Y,Z ==> Vertex 4 {m}

  BuildingSurface:Detailed,
    E4 North Wall (G.S1.I3)-mirror,  !- Name
    Wall,                    !- Surface Type
    Interior Wall,           !- Construction Name
    Computer Classroom E4 Core Spc (G.C5),  !- Zone Name
    ,                        !- Space Name
    Surface,                 !- Outside Boundary Condition
    E4 North Wall (G.S1.I3)-mirror Reversed,  !- Outside Boundary Condition Object
    NoSun,                   !- Sun Exposure
    NoWind,                  !- Wind Exposure
    ,                        !- View Factor to Ground
    ,                        !- Number of Vertices
    22.73811048,9.1821,6.7056,  !- X,Y,Z ==> Vertex 1 {m}
    22.73811048,9.1821,3.9624,  !- X,Y,Z ==> Vertex 2 {m}
    32.586168,9.1821,3.9624,  !- X,Y,Z ==> Vertex 3 {m}
    32.586168,9.1821,6.7056;  !- X,Y,Z ==> Vertex 4 {m}

  BuildingSurface:Detailed,
    E4 North Wall (G.S1.I3)-mirror Reversed,  !- Name
    Wall,                    !- Surface Type
    Interior Wall,           !- Construction Name
    Classroom E4 South Perim (G.S1),  !- Zone Name
    ,                        !- Space Name
    Surface,                 !- Outside Boundary Condition
    E4 North Wall (G.S1.I3)-mirror,  !- Outside Boundary Condition Object
    NoSun,                   !- Sun Exposure
    NoWind,                  !- Wind Exposure
    ,                        !- View Factor to Ground
    ,                        !- Number of Vertices
    32.586168,9.1821,6.7056,  !- X,Y,Z ==> Vertex 1 {m}
    32.586168,9.1821,3.9624,  !- X,Y,Z ==> Vertex 2 {m}
    22.73811048,9.1821,3.9624,  !- X,Y,Z ==> Vertex 3 {m}
    22.73811048,9.1821,6.7056;  !- X,Y,Z ==> Vertex 4 {m}

  BuildingSurface:Detailed,
    E4 North Wall (G.S7.I19)-mirror,  !- Name
    Wall,                    !- Surface Type
    Interior Wall,           !- Construction Name
    E4 Core Plnm (G.C12),    !- Zone Name
    ,                        !- Space Name
    Surface,                 !- Outside Boundary Condition
    E4 North Wall (G.S7.I19)-mirror Reversed,  !- Outside Boundary Condition Object
    NoSun,                   !- Sun Exposure
    NoWind,                  !- Wind Exposure
    ,                        !- View Factor to Ground
    ,                        !- Number of Vertices
    32.586168,9.1821,7.9248,  !- X,Y,Z ==> Vertex 1 {m}
    32.586168,9.1821,6.7056,  !- X,Y,Z ==> Vertex 2 {m}
    55.56504,9.1821,6.7056,  !- X,Y,Z ==> Vertex 3 {m}
    55.56504,9.1821,7.9248;  !- X,Y,Z ==> Vertex 4 {m}

  BuildingSurface:Detailed,
    E4 North Wall (G.S7.I19)-mirror Reversed,  !- Name
    Wall,                    !- Surface Type
    Interior Wall,           !- Construction Name
    E4 South Perim Plnm (G.S7),  !- Zone Name
    ,                        !- Space Name
    Surface,                 !- Outside Boundary Condition
    E4 North Wall (G.S7.I19)-mirror,  !- Outside Boundary Condition Object
    NoSun,                   !- Sun Exposure
    NoWind,                  !- Wind Exposure
    ,                        !- View Factor to Ground
    ,                        !- Number of Vertices
    55.56504,9.1821,7.9248,  !- X,Y,Z ==> Vertex 1 {m}
    55.56504,9.1821,6.7056,  !- X,Y,Z ==> Vertex 2 {m}
    32.586168,9.1821,6.7056,  !- X,Y,Z ==> Vertex 3 {m}
    32.586168,9.1821,7.9248;  !- X,Y,Z ==> Vertex 4 {m}

  BuildingSurface:Detailed,
    E4 North Wall (G.S7.I20)-mirror,  !- Name
    Wall,                    !- Surface Type
    Interior Wall,           !- Construction Name
    E4 Core Plnm (G.C11),    !- Zone Name
    ,                        !- Space Name
    Surface,                 !- Outside Boundary Condition
    E4 North Wall (G.S7.I20)-mirror Reversed,  !- Outside Boundary Condition Object
    NoSun,                   !- Sun Exposure
    NoWind,                  !- Wind Exposure
    ,                        !- View Factor to Ground
    ,                        !- Number of Vertices
    22.73811048,9.1821,7.9248,  !- X,Y,Z ==> Vertex 1 {m}
    22.73811048,9.1821,6.7056,  !- X,Y,Z ==> Vertex 2 {m}
    32.586168,9.1821,6.7056,  !- X,Y,Z ==> Vertex 3 {m}
    32.586168,9.1821,7.9248;  !- X,Y,Z ==> Vertex 4 {m}

  BuildingSurface:Detailed,
    E4 North Wall (G.S7.I20)-mirror Reversed,  !- Name
    Wall,                    !- Surface Type
    Interior Wall,           !- Construction Name
    E4 South Perim Plnm (G.S7),  !- Zone Name
    ,                        !- Space Name
    Surface,                 !- Outside Boundary Condition
    E4 North Wall (G.S7.I20)-mirror,  !- Outside Boundary Condition Object
    NoSun,                   !- Sun Exposure
    NoWind,                  !- Wind Exposure
    ,                        !- View Factor to Ground
    ,                        !- Number of Vertices
    32.586168,9.1821,7.9248,  !- X,Y,Z ==> Vertex 1 {m}
    32.586168,9.1821,6.7056,  !- X,Y,Z ==> Vertex 2 {m}
    22.73811048,9.1821,6.7056,  !- X,Y,Z ==> Vertex 3 {m}
    22.73811048,9.1821,7.9248;  !- X,Y,Z ==> Vertex 4 {m}

  BuildingSurface:Detailed,
    E4 Roof (G.C11.E13),     !- Name
    Roof,                    !- Surface Type
    Exterior Roof,           !- Construction Name
    E4 Core Plnm (G.C11),    !- Zone Name
    ,                        !- Space Name
    Outdoors,                !- Outside Boundary Condition
    ,                        !- Outside Boundary Condition Object
    SunExposed,              !- Sun Exposure
    WindExposed,             !- Wind Exposure
    ,                        !- View Factor to Ground
    ,                        !- Number of Vertices
    32.586168,9.1821,7.9248,  !- X,Y,Z ==> Vertex 1 {m}
    32.586168,16.45161048,7.9248,  !- X,Y,Z ==> Vertex 2 {m}
    22.73811048,16.45161048,7.9248,  !- X,Y,Z ==> Vertex 3 {m}
    22.73811048,9.1821,7.9248;  !- X,Y,Z ==> Vertex 4 {m}

  BuildingSurface:Detailed,
    E4 Roof (G.C12.E14),     !- Name
    Roof,                    !- Surface Type
    Exterior Roof,           !- Construction Name
    E4 Core Plnm (G.C12),    !- Zone Name
    ,                        !- Space Name
    Outdoors,                !- Outside Boundary Condition
    ,                        !- Outside Boundary Condition Object
    SunExposed,              !- Sun Exposure
    WindExposed,             !- Wind Exposure
    ,                        !- View Factor to Ground
    ,                        !- Number of Vertices
    55.56504,9.1821,7.9248,  !- X,Y,Z ==> Vertex 1 {m}
    55.56504,16.45161048,7.9248,  !- X,Y,Z ==> Vertex 2 {m}
    32.586168,16.45161048,7.9248,  !- X,Y,Z ==> Vertex 3 {m}
    32.586168,9.1821,7.9248;  !- X,Y,Z ==> Vertex 4 {m}

  BuildingSurface:Detailed,
    E4 Roof (G.E8.E8),       !- Name
    Roof,                    !- Surface Type
    Exterior Roof,           !- Construction Name
    E4 East Perim Plnm (G.E8),  !- Zone Name
    ,                        !- Space Name
    Outdoors,                !- Outside Boundary Condition
    ,                        !- Outside Boundary Condition Object
    SunExposed,              !- Sun Exposure
    WindExposed,             !- Wind Exposure
    ,                        !- View Factor to Ground
    ,                        !- Number of Vertices
    64.70904,0,7.9248,  !- X,Y,Z ==> Vertex 1 {m}
    64.70904,25.63371048,7.9248,  !- X,Y,Z ==> Vertex 2 {m}
    55.56504,16.45161048,7.9248,  !- X,Y,Z ==> Vertex 3 {m}
    55.56504,9.1821,7.9248;  !- X,Y,Z ==> Vertex 4 {m}

  BuildingSurface:Detailed,
    E4 Roof (G.N9.E10),      !- Name
    Roof,                    !- Surface Type
    Exterior Roof,           !- Construction Name
    E4 North Perim Plnm (G.N9),  !- Zone Name
    ,                        !- Space Name
    Outdoors,                !- Outside Boundary Condition
    ,                        !- Outside Boundary Condition Object
    SunExposed,              !- Sun Exposure
    WindExposed,             !- Wind Exposure
    ,                        !- View Factor to Ground
    ,                        !- Number of Vertices
    55.56504,16.45161048,7.9248,  !- X,Y,Z ==> Vertex 1 {m}
    64.70904,25.63371048,7.9248,  !- X,Y,Z ==> Vertex 2 {m}
    13.59411048,25.63371048,7.9248,  !- X,Y,Z ==> Vertex 3 {m}
    22.73811048,16.45161048,7.9248;  !- X,Y,Z ==> Vertex 4 {m}

  BuildingSurface:Detailed,
    E4 Roof (G.S7.E6),       !- Name
    Roof,                    !- Surface Type
    Exterior Roof,           !- Construction Name
    E4 South Perim Plnm (G.S7),  !- Zone Name
    ,                        !- Space Name
    Outdoors,                !- Outside Boundary Condition
    ,                        !- Outside Boundary Condition Object
    SunExposed,              !- Sun Exposure
    WindExposed,             !- Wind Exposure
    ,                        !- View Factor to Ground
    ,                        !- Number of Vertices
    64.70904,0,7.9248,  !- X,Y,Z ==> Vertex 1 {m}
    55.56504,9.1821,7.9248,  !- X,Y,Z ==> Vertex 2 {m}
    22.73811048,9.1821,7.9248,  !- X,Y,Z ==> Vertex 3 {m}
    13.59411048,0,7.9248;  !- X,Y,Z ==> Vertex 4 {m}

  BuildingSurface:Detailed,
    E4 Roof (G.W10.E12),     !- Name
    Roof,                    !- Surface Type
    Exterior Roof,           !- Construction Name
    E4 West Perim Plnm (G.W10),  !- Zone Name
    ,                        !- Space Name
    Outdoors,                !- Outside Boundary Condition
    ,                        !- Outside Boundary Condition Object
    SunExposed,              !- Sun Exposure
    WindExposed,             !- Wind Exposure
    ,                        !- View Factor to Ground
    ,                        !- Number of Vertices
    13.59411048,0,7.9248,  !- X,Y,Z ==> Vertex 1 {m}
    22.73811048,9.1821,7.9248,  !- X,Y,Z ==> Vertex 2 {m}
    22.73811048,16.45161048,7.9248,  !- X,Y,Z ==> Vertex 3 {m}
    13.59411048,25.63371048,7.9248;  !- X,Y,Z ==> Vertex 4 {m}

  BuildingSurface:Detailed,
    E4 SE Wall (G.N3.I11)-mirror,  !- Name
    Wall,                    !- Surface Type
    Interior Wall,           !- Construction Name
    Classroom E4 East Perim (G.E2),  !- Zone Name
    ,                        !- Space Name
    Surface,                 !- Outside Boundary Condition
    E4 SE Wall (G.N3.I11)-mirror Reversed,  !- Outside Boundary Condition Object
    NoSun,                   !- Sun Exposure
    NoWind,                  !- Wind Exposure
    ,                        !- View Factor to Ground
    ,                        !- Number of Vertices
    64.70904,25.63371048,6.7056,  !- X,Y,Z ==> Vertex 1 {m}
    64.70904,25.63371048,3.9624,  !- X,Y,Z ==> Vertex 2 {m}
    55.56504,16.45161048,3.9624,  !- X,Y,Z ==> Vertex 3 {m}
    55.56504,16.45161048,6.7056;  !- X,Y,Z ==> Vertex 4 {m}

  BuildingSurface:Detailed,
    E4 SE Wall (G.N3.I11)-mirror Reversed,  !- Name
    Wall,                    !- Surface Type
    Interior Wall,           !- Construction Name
    Classroom E4 North Perim (G.N3),  !- Zone Name
    ,                        !- Space Name
    Surface,                 !- Outside Boundary Condition
    E4 SE Wall (G.N3.I11)-mirror,  !- Outside Boundary Condition Object
    NoSun,                   !- Sun Exposure
    NoWind,                  !- Wind Exposure
    ,                        !- View Factor to Ground
    ,                        !- Number of Vertices
    55.56504,16.45161048,6.7056,  !- X,Y,Z ==> Vertex 1 {m}
    55.56504,16.45161048,3.9624,  !- X,Y,Z ==> Vertex 2 {m}
    64.70904,25.63371048,3.9624,  !- X,Y,Z ==> Vertex 3 {m}
    64.70904,25.63371048,6.7056;  !- X,Y,Z ==> Vertex 4 {m}

  BuildingSurface:Detailed,
    E4 SE Wall (G.N9.I26)-mirror,  !- Name
    Wall,                    !- Surface Type
    Interior Wall,           !- Construction Name
    E4 East Perim Plnm (G.E8),  !- Zone Name
    ,                        !- Space Name
    Surface,                 !- Outside Boundary Condition
    E4 SE Wall (G.N9.I26)-mirror Reversed,  !- Outside Boundary Condition Object
    NoSun,                   !- Sun Exposure
    NoWind,                  !- Wind Exposure
    ,                        !- View Factor to Ground
    ,                        !- Number of Vertices
    64.70904,25.63371048,7.9248,  !- X,Y,Z ==> Vertex 1 {m}
    64.70904,25.63371048,6.7056,  !- X,Y,Z ==> Vertex 2 {m}
    55.56504,16.45161048,6.7056,  !- X,Y,Z ==> Vertex 3 {m}
    55.56504,16.45161048,7.9248;  !- X,Y,Z ==> Vertex 4 {m}

  BuildingSurface:Detailed,
    E4 SE Wall (G.N9.I26)-mirror Reversed,  !- Name
    Wall,                    !- Surface Type
    Interior Wall,           !- Construction Name
    E4 North Perim Plnm (G.N9),  !- Zone Name
    ,                        !- Space Name
    Surface,                 !- Outside Boundary Condition
    E4 SE Wall (G.N9.I26)-mirror,  !- Outside Boundary Condition Object
    NoSun,                   !- Sun Exposure
    NoWind,                  !- Wind Exposure
    ,                        !- View Factor to Ground
    ,                        !- Number of Vertices
    55.56504,16.45161048,7.9248,  !- X,Y,Z ==> Vertex 1 {m}
    55.56504,16.45161048,6.7056,  !- X,Y,Z ==> Vertex 2 {m}
    64.70904,25.63371048,6.7056,  !- X,Y,Z ==> Vertex 3 {m}
    64.70904,25.63371048,7.9248;  !- X,Y,Z ==> Vertex 4 {m}

  BuildingSurface:Detailed,
    E4 SW Wall (G.N3.I8),    !- Name
    Wall,                    !- Surface Type
    Interior Wall,           !- Construction Name
    Classroom E4 North Perim (G.N3),  !- Zone Name
    ,                        !- Space Name
    Surface,                 !- Outside Boundary Condition
    E4 SW Wall (G.N3.I8) Reversed,  !- Outside Boundary Condition Object
    NoSun,                   !- Sun Exposure
    NoWind,                  !- Wind Exposure
    ,                        !- View Factor to Ground
    ,                        !- Number of Vertices
    13.59411048,25.63371048,6.7056,  !- X,Y,Z ==> Vertex 1 {m}
    13.59411048,25.63371048,3.9624,  !- X,Y,Z ==> Vertex 2 {m}
    22.73811048,16.45161048,3.9624,  !- X,Y,Z ==> Vertex 3 {m}
    22.73811048,16.45161048,6.7056;  !- X,Y,Z ==> Vertex 4 {m}

  BuildingSurface:Detailed,
    E4 SW Wall (G.N3.I8) Reversed,  !- Name
    Wall,                    !- Surface Type
    Interior Wall,           !- Construction Name
    Classroom E4 West Perim (G.W4),  !- Zone Name
    ,                        !- Space Name
    Surface,                 !- Outside Boundary Condition
    E4 SW Wall (G.N3.I8),    !- Outside Boundary Condition Object
    NoSun,                   !- Sun Exposure
    NoWind,                  !- Wind Exposure
    ,                        !- View Factor to Ground
    ,                        !- Number of Vertices
    22.73811048,16.45161048,6.7056,  !- X,Y,Z ==> Vertex 1 {m}
    22.73811048,16.45161048,3.9624,  !- X,Y,Z ==> Vertex 2 {m}
    13.59411048,25.63371048,3.9624,  !- X,Y,Z ==> Vertex 3 {m}
    13.59411048,25.63371048,6.7056;  !- X,Y,Z ==> Vertex 4 {m}

  BuildingSurface:Detailed,
    E4 SW Wall (G.N9.I23),   !- Name
    Wall,                    !- Surface Type
    Interior Wall,           !- Construction Name
    E4 North Perim Plnm (G.N9),  !- Zone Name
    ,                        !- Space Name
    Surface,                 !- Outside Boundary Condition
    E4 SW Wall (G.N9.I23) Reversed,  !- Outside Boundary Condition Object
    NoSun,                   !- Sun Exposure
    NoWind,                  !- Wind Exposure
    ,                        !- View Factor to Ground
    ,                        !- Number of Vertices
    13.59411048,25.63371048,7.9248,  !- X,Y,Z ==> Vertex 1 {m}
    13.59411048,25.63371048,6.7056,  !- X,Y,Z ==> Vertex 2 {m}
    22.73811048,16.45161048,6.7056,  !- X,Y,Z ==> Vertex 3 {m}
    22.73811048,16.45161048,7.9248;  !- X,Y,Z ==> Vertex 4 {m}

  BuildingSurface:Detailed,
    E4 SW Wall (G.N9.I23) Reversed,  !- Name
    Wall,                    !- Surface Type
    Interior Wall,           !- Construction Name
    E4 West Perim Plnm (G.W10),  !- Zone Name
    ,                        !- Space Name
    Surface,                 !- Outside Boundary Condition
    E4 SW Wall (G.N9.I23),   !- Outside Boundary Condition Object
    NoSun,                   !- Sun Exposure
    NoWind,                  !- Wind Exposure
    ,                        !- View Factor to Ground
    ,                        !- Number of Vertices
    22.73811048,16.45161048,7.9248,  !- X,Y,Z ==> Vertex 1 {m}
    22.73811048,16.45161048,6.7056,  !- X,Y,Z ==> Vertex 2 {m}
    13.59411048,25.63371048,6.7056,  !- X,Y,Z ==> Vertex 3 {m}
    13.59411048,25.63371048,7.9248;  !- X,Y,Z ==> Vertex 4 {m}

  BuildingSurface:Detailed,
    E4 South Perim Spc (G.S1) - Floor_a,  !- Name
    Floor,                   !- Surface Type
    Interior Floor,          !- Construction Name
    Classroom E4 South Perim (G.S1),  !- Zone Name
    ,                        !- Space Name
    Surface,                 !- Outside Boundary Condition
    E4 South Perim Spc (G.S1) - Floor_a Reversed,  !- Outside Boundary Condition Object
    NoSun,                   !- Sun Exposure
    NoWind,                  !- Wind Exposure
    ,                        !- View Factor to Ground
    ,                        !- Number of Vertices
    34.76244,9.1821,3.9624,  !- X,Y,Z ==> Vertex 1 {m}
    34.76244,0,3.9624,  !- X,Y,Z ==> Vertex 2 {m}
    13.59411048,0,3.9624,  !- X,Y,Z ==> Vertex 3 {m}
    22.73811048,9.1821,3.9624;  !- X,Y,Z ==> Vertex 4 {m}

  BuildingSurface:Detailed,
    E4 South Perim Spc (G.S1) - Floor_a Reversed,  !- Name
    Ceiling,                 !- Surface Type
    Radiant Interior Ceiling,!- Construction Name
    E2 South Perim Plnm (G.S5),  !- Zone Name
    ,                        !- Space Name
    Surface,                 !- Outside Boundary Condition
    E4 South Perim Spc (G.S1) - Floor_a,  !- Outside Boundary Condition Object
    NoSun,                   !- Sun Exposure
    NoWind,                  !- Wind Exposure
    ,                        !- View Factor to Ground
    ,                        !- Number of Vertices
    34.76244,0,3.9624,  !- X,Y,Z ==> Vertex 1 {m}
    34.76244,9.1821,3.9624,  !- X,Y,Z ==> Vertex 2 {m}
    22.73811048,9.1821,3.9624,  !- X,Y,Z ==> Vertex 3 {m}
    13.59411048,0,3.9624;  !- X,Y,Z ==> Vertex 4 {m}

  BuildingSurface:Detailed,
    E4 South Wall (G.N3.I10)-mirror,  !- Name
    Wall,                    !- Surface Type
    Interior Wall,           !- Construction Name
    Classroom E4 Core (G.C6),!- Zone Name
    ,                        !- Space Name
    Surface,                 !- Outside Boundary Condition
    E4 South Wall (G.N3.I10)-mirror Reversed,  !- Outside Boundary Condition Object
    NoSun,                   !- Sun Exposure
    NoWind,                  !- Wind Exposure
    ,                        !- View Factor to Ground
    ,                        !- Number of Vertices
    55.56504,16.45161048,6.7056,  !- X,Y,Z ==> Vertex 1 {m}
    55.56504,16.45161048,3.9624,  !- X,Y,Z ==> Vertex 2 {m}
    32.586168,16.45161048,3.9624,  !- X,Y,Z ==> Vertex 3 {m}
    32.586168,16.45161048,6.7056;  !- X,Y,Z ==> Vertex 4 {m}

  BuildingSurface:Detailed,
    E4 South Wall (G.N3.I10)-mirror Reversed,  !- Name
    Wall,                    !- Surface Type
    Interior Wall,           !- Construction Name
    Classroom E4 North Perim (G.N3),  !- Zone Name
    ,                        !- Space Name
    Surface,                 !- Outside Boundary Condition
    E4 South Wall (G.N3.I10)-mirror,  !- Outside Boundary Condition Object
    NoSun,                   !- Sun Exposure
    NoWind,                  !- Wind Exposure
    ,                        !- View Factor to Ground
    ,                        !- Number of Vertices
    32.586168,16.45161048,6.7056,  !- X,Y,Z ==> Vertex 1 {m}
    32.586168,16.45161048,3.9624,  !- X,Y,Z ==> Vertex 2 {m}
    55.56504,16.45161048,3.9624,  !- X,Y,Z ==> Vertex 3 {m}
    55.56504,16.45161048,6.7056;  !- X,Y,Z ==> Vertex 4 {m}

  BuildingSurface:Detailed,
    E4 South Wall (G.N3.I9)-mirror,  !- Name
    Wall,                    !- Surface Type
    Interior Wall,           !- Construction Name
    Computer Classroom E4 Core Spc (G.C5),  !- Zone Name
    ,                        !- Space Name
    Surface,                 !- Outside Boundary Condition
    E4 South Wall (G.N3.I9)-mirror Reversed,  !- Outside Boundary Condition Object
    NoSun,                   !- Sun Exposure
    NoWind,                  !- Wind Exposure
    ,                        !- View Factor to Ground
    ,                        !- Number of Vertices
    32.586168,16.45161048,6.7056,  !- X,Y,Z ==> Vertex 1 {m}
    32.586168,16.45161048,3.9624,  !- X,Y,Z ==> Vertex 2 {m}
    22.73811048,16.45161048,3.9624,  !- X,Y,Z ==> Vertex 3 {m}
    22.73811048,16.45161048,6.7056;  !- X,Y,Z ==> Vertex 4 {m}

  BuildingSurface:Detailed,
    E4 South Wall (G.N3.I9)-mirror Reversed,  !- Name
    Wall,                    !- Surface Type
    Interior Wall,           !- Construction Name
    Classroom E4 North Perim (G.N3),  !- Zone Name
    ,                        !- Space Name
    Surface,                 !- Outside Boundary Condition
    E4 South Wall (G.N3.I9)-mirror,  !- Outside Boundary Condition Object
    NoSun,                   !- Sun Exposure
    NoWind,                  !- Wind Exposure
    ,                        !- View Factor to Ground
    ,                        !- Number of Vertices
    22.73811048,16.45161048,6.7056,  !- X,Y,Z ==> Vertex 1 {m}
    22.73811048,16.45161048,3.9624,  !- X,Y,Z ==> Vertex 2 {m}
    32.586168,16.45161048,3.9624,  !- X,Y,Z ==> Vertex 3 {m}
    32.586168,16.45161048,6.7056;  !- X,Y,Z ==> Vertex 4 {m}

  BuildingSurface:Detailed,
    E4 South Wall (G.N9.I24)-mirror,  !- Name
    Wall,                    !- Surface Type
    Interior Wall,           !- Construction Name
    E4 Core Plnm (G.C11),    !- Zone Name
    ,                        !- Space Name
    Surface,                 !- Outside Boundary Condition
    E4 South Wall (G.N9.I24)-mirror Reversed,  !- Outside Boundary Condition Object
    NoSun,                   !- Sun Exposure
    NoWind,                  !- Wind Exposure
    ,                        !- View Factor to Ground
    ,                        !- Number of Vertices
    32.586168,16.45161048,7.9248,  !- X,Y,Z ==> Vertex 1 {m}
    32.586168,16.45161048,6.7056,  !- X,Y,Z ==> Vertex 2 {m}
    22.73811048,16.45161048,6.7056,  !- X,Y,Z ==> Vertex 3 {m}
    22.73811048,16.45161048,7.9248;  !- X,Y,Z ==> Vertex 4 {m}

  BuildingSurface:Detailed,
    E4 South Wall (G.N9.I24)-mirror Reversed,  !- Name
    Wall,                    !- Surface Type
    Interior Wall,           !- Construction Name
    E4 North Perim Plnm (G.N9),  !- Zone Name
    ,                        !- Space Name
    Surface,                 !- Outside Boundary Condition
    E4 South Wall (G.N9.I24)-mirror,  !- Outside Boundary Condition Object
    NoSun,                   !- Sun Exposure
    NoWind,                  !- Wind Exposure
    ,                        !- View Factor to Ground
    ,                        !- Number of Vertices
    22.73811048,16.45161048,7.9248,  !- X,Y,Z ==> Vertex 1 {m}
    22.73811048,16.45161048,6.7056,  !- X,Y,Z ==> Vertex 2 {m}
    32.586168,16.45161048,6.7056,  !- X,Y,Z ==> Vertex 3 {m}
    32.586168,16.45161048,7.9248;  !- X,Y,Z ==> Vertex 4 {m}

  BuildingSurface:Detailed,
    E4 South Wall (G.N9.I25)-mirror,  !- Name
    Wall,                    !- Surface Type
    Interior Wall,           !- Construction Name
    E4 Core Plnm (G.C12),    !- Zone Name
    ,                        !- Space Name
    Surface,                 !- Outside Boundary Condition
    E4 South Wall (G.N9.I25)-mirror Reversed,  !- Outside Boundary Condition Object
    NoSun,                   !- Sun Exposure
    NoWind,                  !- Wind Exposure
    ,                        !- View Factor to Ground
    ,                        !- Number of Vertices
    55.56504,16.45161048,7.9248,  !- X,Y,Z ==> Vertex 1 {m}
    55.56504,16.45161048,6.7056,  !- X,Y,Z ==> Vertex 2 {m}
    32.586168,16.45161048,6.7056,  !- X,Y,Z ==> Vertex 3 {m}
    32.586168,16.45161048,7.9248;  !- X,Y,Z ==> Vertex 4 {m}

  BuildingSurface:Detailed,
    E4 South Wall (G.N9.I25)-mirror Reversed,  !- Name
    Wall,                    !- Surface Type
    Interior Wall,           !- Construction Name
    E4 North Perim Plnm (G.N9),  !- Zone Name
    ,                        !- Space Name
    Surface,                 !- Outside Boundary Condition
    E4 South Wall (G.N9.I25)-mirror,  !- Outside Boundary Condition Object
    NoSun,                   !- Sun Exposure
    NoWind,                  !- Wind Exposure
    ,                        !- View Factor to Ground
    ,                        !- Number of Vertices
    32.586168,16.45161048,7.9248,  !- X,Y,Z ==> Vertex 1 {m}
    32.586168,16.45161048,6.7056,  !- X,Y,Z ==> Vertex 2 {m}
    55.56504,16.45161048,6.7056,  !- X,Y,Z ==> Vertex 3 {m}
    55.56504,16.45161048,7.9248;  !- X,Y,Z ==> Vertex 4 {m}

  BuildingSurface:Detailed,
    E4 South Wall (G.S1.E1), !- Name
    Wall,                    !- Surface Type
    Exterior Wall,           !- Construction Name
    Classroom E4 South Perim (G.S1),  !- Zone Name
    ,                        !- Space Name
    Outdoors,                !- Outside Boundary Condition
    ,                        !- Outside Boundary Condition Object
    SunExposed,              !- Sun Exposure
    WindExposed,             !- Wind Exposure
    ,                        !- View Factor to Ground
    ,                        !- Number of Vertices
    13.59411048,0,6.7056,  !- X,Y,Z ==> Vertex 1 {m}
    13.59411048,0,3.9624,  !- X,Y,Z ==> Vertex 2 {m}
    64.70904,0,3.9624,  !- X,Y,Z ==> Vertex 3 {m}
    64.70904,0,6.7056;  !- X,Y,Z ==> Vertex 4 {m}

  BuildingSurface:Detailed,
    E4 South Wall (G.S7.E5), !- Name
    Wall,                    !- Surface Type
    Exterior Wall,           !- Construction Name
    E4 South Perim Plnm (G.S7),  !- Zone Name
    ,                        !- Space Name
    Outdoors,                !- Outside Boundary Condition
    ,                        !- Outside Boundary Condition Object
    SunExposed,              !- Sun Exposure
    WindExposed,             !- Wind Exposure
    ,                        !- View Factor to Ground
    ,                        !- Number of Vertices
    13.59411048,0,7.9248,  !- X,Y,Z ==> Vertex 1 {m}
    13.59411048,0,6.7056,  !- X,Y,Z ==> Vertex 2 {m}
    64.70904,0,6.7056,  !- X,Y,Z ==> Vertex 3 {m}
    64.70904,0,7.9248;  !- X,Y,Z ==> Vertex 4 {m}

  BuildingSurface:Detailed,
    E4 West Perim Spc (G.W4) - Floor_a,  !- Name
    Floor,                   !- Surface Type
    Interior Floor,          !- Construction Name
    Classroom E4 West Perim (G.W4),  !- Zone Name
    ,                        !- Space Name
    Surface,                 !- Outside Boundary Condition
    E4 West Perim Spc (G.W4) - Floor_a Reversed,  !- Outside Boundary Condition Object
    NoSun,                   !- Sun Exposure
    NoWind,                  !- Wind Exposure
    ,                        !- View Factor to Ground
    ,                        !- Number of Vertices
    22.73811048,9.1821,3.9624,  !- X,Y,Z ==> Vertex 1 {m}
    13.59411048,2.54703072e-16,3.9624,  !- X,Y,Z ==> Vertex 2 {m}
    13.59411048,9.1821,3.9624;  !- X,Y,Z ==> Vertex 3 {m}

  BuildingSurface:Detailed,
    E4 West Perim Spc (G.W4) - Floor_a Reversed,  !- Name
    Ceiling,                 !- Surface Type
    Radiant Interior Ceiling,!- Construction Name
    E2 South Perim Plnm (G.S5),  !- Zone Name
    ,                        !- Space Name
    Surface,                 !- Outside Boundary Condition
    E4 West Perim Spc (G.W4) - Floor_a,  !- Outside Boundary Condition Object
    NoSun,                   !- Sun Exposure
    NoWind,                  !- Wind Exposure
    ,                        !- View Factor to Ground
    ,                        !- Number of Vertices
    13.59411048,2.54703072e-16,3.9624,  !- X,Y,Z ==> Vertex 1 {m}
    22.73811048,9.1821,3.9624,  !- X,Y,Z ==> Vertex 2 {m}
    13.59411048,9.1821,3.9624;  !- X,Y,Z ==> Vertex 3 {m}

  BuildingSurface:Detailed,
    E4 West Perim Spc (G.W4) - Floor_b,  !- Name
    Floor,                   !- Surface Type
    Interior Floor,          !- Construction Name
    Classroom E4 West Perim (G.W4),  !- Zone Name
    ,                        !- Space Name
    Surface,                 !- Outside Boundary Condition
    E4 West Perim Spc (G.W4) - Floor_b Reversed,  !- Outside Boundary Condition Object
    NoSun,                   !- Sun Exposure
    NoWind,                  !- Wind Exposure
    ,                        !- View Factor to Ground
    ,                        !- Number of Vertices
    22.73811048,16.45161048,3.9624,  !- X,Y,Z ==> Vertex 1 {m}
    22.73811048,9.1821,3.9624,  !- X,Y,Z ==> Vertex 2 {m}
    13.59411048,9.1821,3.9624,  !- X,Y,Z ==> Vertex 3 {m}
    13.59411048,16.45161048,3.9624;  !- X,Y,Z ==> Vertex 4 {m}

  BuildingSurface:Detailed,
    E4 West Perim Spc (G.W4) - Floor_b Reversed,  !- Name
    Ceiling,                 !- Surface Type
    Radiant Interior Ceiling,!- Construction Name
    E2 West Perim Plnm (G.W4),  !- Zone Name
    ,                        !- Space Name
    Surface,                 !- Outside Boundary Condition
    E4 West Perim Spc (G.W4) - Floor_b,  !- Outside Boundary Condition Object
    NoSun,                   !- Sun Exposure
    NoWind,                  !- Wind Exposure
    ,                        !- View Factor to Ground
    ,                        !- Number of Vertices
    22.73811048,9.1821,3.9624,  !- X,Y,Z ==> Vertex 1 {m}
    22.73811048,16.45161048,3.9624,  !- X,Y,Z ==> Vertex 2 {m}
    13.59411048,16.45161048,3.9624,  !- X,Y,Z ==> Vertex 3 {m}
    13.59411048,9.1821,3.9624;  !- X,Y,Z ==> Vertex 4 {m}

  BuildingSurface:Detailed,
    E4 West Wall (G.E2.I6)-mirror,  !- Name
    Wall,                    !- Surface Type
    Interior Wall,           !- Construction Name
    Classroom E4 Core (G.C6),!- Zone Name
    ,                        !- Space Name
    Surface,                 !- Outside Boundary Condition
    E4 West Wall (G.E2.I6)-mirror Reversed,  !- Outside Boundary Condition Object
    NoSun,                   !- Sun Exposure
    NoWind,                  !- Wind Exposure
    ,                        !- View Factor to Ground
    ,                        !- Number of Vertices
    55.56504,9.1821,6.7056,  !- X,Y,Z ==> Vertex 1 {m}
    55.56504,9.1821,3.9624,  !- X,Y,Z ==> Vertex 2 {m}
    55.56504,16.45161048,3.9624,  !- X,Y,Z ==> Vertex 3 {m}
    55.56504,16.45161048,6.7056;  !- X,Y,Z ==> Vertex 4 {m}

  BuildingSurface:Detailed,
    E4 West Wall (G.E2.I6)-mirror Reversed,  !- Name
    Wall,                    !- Surface Type
    Interior Wall,           !- Construction Name
    Classroom E4 East Perim (G.E2),  !- Zone Name
    ,                        !- Space Name
    Surface,                 !- Outside Boundary Condition
    E4 West Wall (G.E2.I6)-mirror,  !- Outside Boundary Condition Object
    NoSun,                   !- Sun Exposure
    NoWind,                  !- Wind Exposure
    ,                        !- View Factor to Ground
    ,                        !- Number of Vertices
    55.56504,16.45161048,6.7056,  !- X,Y,Z ==> Vertex 1 {m}
    55.56504,16.45161048,3.9624,  !- X,Y,Z ==> Vertex 2 {m}
    55.56504,9.1821,3.9624,  !- X,Y,Z ==> Vertex 3 {m}
    55.56504,9.1821,6.7056;  !- X,Y,Z ==> Vertex 4 {m}

  BuildingSurface:Detailed,
    E4 West Wall (G.E8.I22)-mirror,  !- Name
    Wall,                    !- Surface Type
    Interior Wall,           !- Construction Name
    E4 Core Plnm (G.C12),    !- Zone Name
    ,                        !- Space Name
    Surface,                 !- Outside Boundary Condition
    E4 West Wall (G.E8.I22)-mirror Reversed,  !- Outside Boundary Condition Object
    NoSun,                   !- Sun Exposure
    NoWind,                  !- Wind Exposure
    ,                        !- View Factor to Ground
    ,                        !- Number of Vertices
    55.56504,9.1821,7.9248,  !- X,Y,Z ==> Vertex 1 {m}
    55.56504,9.1821,6.7056,  !- X,Y,Z ==> Vertex 2 {m}
    55.56504,16.45161048,6.7056,  !- X,Y,Z ==> Vertex 3 {m}
    55.56504,16.45161048,7.9248;  !- X,Y,Z ==> Vertex 4 {m}

  BuildingSurface:Detailed,
    E4 West Wall (G.E8.I22)-mirror Reversed,  !- Name
    Wall,                    !- Surface Type
    Interior Wall,           !- Construction Name
    E4 East Perim Plnm (G.E8),  !- Zone Name
    ,                        !- Space Name
    Surface,                 !- Outside Boundary Condition
    E4 West Wall (G.E8.I22)-mirror,  !- Outside Boundary Condition Object
    NoSun,                   !- Sun Exposure
    NoWind,                  !- Wind Exposure
    ,                        !- View Factor to Ground
    ,                        !- Number of Vertices
    55.56504,16.45161048,7.9248,  !- X,Y,Z ==> Vertex 1 {m}
    55.56504,16.45161048,6.7056,  !- X,Y,Z ==> Vertex 2 {m}
    55.56504,9.1821,6.7056,  !- X,Y,Z ==> Vertex 3 {m}
    55.56504,9.1821,7.9248;  !- X,Y,Z ==> Vertex 4 {m}

  BuildingSurface:Detailed,
    E4 West Wall (G.W10.E11),!- Name
    Wall,                    !- Surface Type
    Exterior Wall,           !- Construction Name
    E4 West Perim Plnm (G.W10),  !- Zone Name
    ,                        !- Space Name
    Outdoors,                !- Outside Boundary Condition
    ,                        !- Outside Boundary Condition Object
    SunExposed,              !- Sun Exposure
    WindExposed,             !- Wind Exposure
    ,                        !- View Factor to Ground
    ,                        !- Number of Vertices
    13.59411048,25.63371048,7.9248,  !- X,Y,Z ==> Vertex 1 {m}
    13.59411048,25.63371048,6.7056,  !- X,Y,Z ==> Vertex 2 {m}
    13.59411048,0,6.7056,  !- X,Y,Z ==> Vertex 3 {m}
    13.59411048,0,7.9248;  !- X,Y,Z ==> Vertex 4 {m}

  BuildingSurface:Detailed,
    E4 West Wall (G.W4.E4),  !- Name
    Wall,                    !- Surface Type
    Exterior Wall,           !- Construction Name
    Classroom E4 West Perim (G.W4),  !- Zone Name
    ,                        !- Space Name
    Outdoors,                !- Outside Boundary Condition
    ,                        !- Outside Boundary Condition Object
    SunExposed,              !- Sun Exposure
    WindExposed,             !- Wind Exposure
    ,                        !- View Factor to Ground
    ,                        !- Number of Vertices
    13.59411048,25.63371048,6.7056,  !- X,Y,Z ==> Vertex 1 {m}
    13.59411048,25.63371048,3.9624,  !- X,Y,Z ==> Vertex 2 {m}
    13.59411048,2.54703072e-16,3.9624,  !- X,Y,Z ==> Vertex 3 {m}
    13.59411048,2.54703072e-16,6.7056;  !- X,Y,Z ==> Vertex 4 {m}

  FenestrationSurface:Detailed,
    E1 North Win (G.W1.E2.W1),  !- Name
    Window,                  !- Surface Type
    Exterior Window,         !- Construction Name
    E1 North Wall (G.W1.E2), !- Building Surface Name
    ,                        !- Outside Boundary Condition Object
    ,                        !- View Factor to Ground
    ,                        !- Frame and Divider Name
    ,                        !- Multiplier
    ,                        !- Number of Vertices
    7.9188564,25.63371048,2.667,  !- X,Y,Z ==> Vertex 1 {m}
    7.9188564,25.63371048,0.9144,  !- X,Y,Z ==> Vertex 2 {m}
    5.67525408,25.63371048,0.9144,  !- X,Y,Z ==> Vertex 3 {m}
    5.67525408,25.63371048,2.667;  !- X,Y,Z ==> Vertex 4 {m}

  FenestrationSurface:Detailed,
    E1 South Win (G.W1.E1.W1),  !- Name
    Window,                  !- Surface Type
    Exterior Window,         !- Construction Name
    E1 South Wall (G.W1.E1), !- Building Surface Name
    ,                        !- Outside Boundary Condition Object
    ,                        !- View Factor to Ground
    ,                        !- Frame and Divider Name
    ,                        !- Multiplier
    ,                        !- Number of Vertices
    5.6752236,0,2.667,  !- X,Y,Z ==> Vertex 1 {m}
    5.6752236,0,0.9144,  !- X,Y,Z ==> Vertex 2 {m}
    7.91882592,0,0.9144,  !- X,Y,Z ==> Vertex 3 {m}
    7.91882592,0,2.667;  !- X,Y,Z ==> Vertex 4 {m}

  FenestrationSurface:Detailed,
    E1 West Win (G.W1.E3.W1),!- Name
    Window,                  !- Surface Type
    Exterior Window,         !- Construction Name
    E1 West Wall (G.W1.E3),  !- Building Surface Name
    ,                        !- Outside Boundary Condition Object
    ,                        !- View Factor to Ground
    ,                        !- Frame and Divider Name
    ,                        !- Multiplier
    ,                        !- Number of Vertices
    0,14.93218248,2.667,  !- X,Y,Z ==> Vertex 1 {m}
    0,14.93218248,0.9144,  !- X,Y,Z ==> Vertex 2 {m}
    0,10.70149752,0.9144,  !- X,Y,Z ==> Vertex 3 {m}
    0,10.70149752,2.667;  !- X,Y,Z ==> Vertex 4 {m}

  FenestrationSurface:Detailed,
    E17 East Win (G.W1.E2.W1),  !- Name
    Window,                  !- Surface Type
    Exterior Window,         !- Construction Name
    E17 East Wall (G.W1.E2), !- Building Surface Name
    ,                        !- Outside Boundary Condition Object
    ,                        !- View Factor to Ground
    ,                        !- Frame and Divider Name
    ,                        !- Multiplier
    ,                        !- Number of Vertices
    29.65700952,71.4280512,2.667,  !- X,Y,Z ==> Vertex 1 {m}
    29.65700952,71.4280512,0.9144,  !- X,Y,Z ==> Vertex 2 {m}
    29.65700952,86.5196136,0.9144,  !- X,Y,Z ==> Vertex 3 {m}
    29.65700952,86.5196136,2.667;  !- X,Y,Z ==> Vertex 4 {m}

  FenestrationSurface:Detailed,
    E17 North Win (G.W1.E3.W1),  !- Name
    Window,                  !- Surface Type
    Exterior Window,         !- Construction Name
    E17 North Wall (G.W1.E3),!- Building Surface Name
    ,                        !- Outside Boundary Condition Object
    ,                        !- View Factor to Ground
    ,                        !- Frame and Divider Name
    ,                        !- Multiplier
    ,                        !- Number of Vertices
    14.34279072,101.83368,2.667,  !- X,Y,Z ==> Vertex 1 {m}
    14.34279072,101.83368,0.9144,  !- X,Y,Z ==> Vertex 2 {m}
    -0.748780824,101.83368,0.9144,  !- X,Y,Z ==> Vertex 3 {m}
    -0.748780824,101.83368,2.667;  !- X,Y,Z ==> Vertex 4 {m}

  FenestrationSurface:Detailed,
    E17 South Win (G.W1.E1.W1),  !- Name
    Window,                  !- Surface Type
    Exterior Window,         !- Construction Name
    E17 South Wall (G.W1.E1),!- Building Surface Name
    ,                        !- Outside Boundary Condition Object
    ,                        !- View Factor to Ground
    ,                        !- Frame and Divider Name
    ,                        !- Multiplier
    ,                        !- Number of Vertices
    -0.748780824,56.11368,2.667,  !- X,Y,Z ==> Vertex 1 {m}
    -0.748780824,56.11368,0.9144,  !- X,Y,Z ==> Vertex 2 {m}
    14.34279072,56.11368,0.9144,  !- X,Y,Z ==> Vertex 3 {m}
    14.34279072,56.11368,2.667;  !- X,Y,Z ==> Vertex 4 {m}

  FenestrationSurface:Detailed,
    E17 West Win (G.W1.E4.W1),  !- Name
    Window,                  !- Surface Type
    Exterior Window,         !- Construction Name
    E17 West Wall (G.W1.E4), !- Building Surface Name
    ,                        !- Outside Boundary Condition Object
    ,                        !- View Factor to Ground
    ,                        !- Frame and Divider Name
    ,                        !- Multiplier
    ,                        !- Number of Vertices
    -16.06299048,86.5196136,2.667,  !- X,Y,Z ==> Vertex 1 {m}
    -16.06299048,86.5196136,0.9144,  !- X,Y,Z ==> Vertex 2 {m}
    -16.06299048,71.4280512,0.9144,  !- X,Y,Z ==> Vertex 3 {m}
    -16.06299048,71.4280512,2.667;  !- X,Y,Z ==> Vertex 4 {m}

  FenestrationSurface:Detailed,
    E2 North Win (G.N3.E2.W1),  !- Name
    Window,                  !- Surface Type
    Exterior Window,         !- Construction Name
    E2 North Wall (G.N3.E2), !- Building Surface Name
    ,                        !- Outside Boundary Condition Object
    ,                        !- View Factor to Ground
    ,                        !- Frame and Divider Name
    ,                        !- Multiplier
    ,                        !- Number of Vertices
    31.1179464,25.63371048,2.667,  !- X,Y,Z ==> Vertex 1 {m}
    31.1179464,25.63371048,0.9144,  !- X,Y,Z ==> Vertex 2 {m}
    17.23875648,25.63371048,0.9144,  !- X,Y,Z ==> Vertex 3 {m}
    17.23875648,25.63371048,2.667;  !- X,Y,Z ==> Vertex 4 {m}

  FenestrationSurface:Detailed,
    E2 South Win (G.S2.E1.W1),  !- Name
    Window,                  !- Surface Type
    Exterior Window,         !- Construction Name
    E2 South Wall (G.S2.E1), !- Building Surface Name
    ,                        !- Outside Boundary Condition Object
    ,                        !- View Factor to Ground
    ,                        !- Frame and Divider Name
    ,                        !- Multiplier
    ,                        !- Number of Vertices
    17.23875648,0,2.667,  !- X,Y,Z ==> Vertex 1 {m}
    17.23875648,0,0.9144,  !- X,Y,Z ==> Vertex 2 {m}
    31.1179464,0,0.9144,  !- X,Y,Z ==> Vertex 3 {m}
    31.1179464,0,2.667;  !- X,Y,Z ==> Vertex 4 {m}

  FenestrationSurface:Detailed,
    E3 East Win (G.NE2.E5.W1),  !- Name
    Window,                  !- Surface Type
    Exterior Window,         !- Construction Name
    E3 East Wall (G.NE2.E5), !- Building Surface Name
    ,                        !- Outside Boundary Condition Object
    ,                        !- View Factor to Ground
    ,                        !- Frame and Divider Name
    ,                        !- Multiplier
    ,                        !- Number of Vertices
    64.70904,13.94164344,2.667,  !- X,Y,Z ==> Vertex 1 {m}
    64.70904,13.94164344,0.9144,  !- X,Y,Z ==> Vertex 2 {m}
    64.70904,21.64677408,0.9144,  !- X,Y,Z ==> Vertex 3 {m}
    64.70904,21.64677408,2.667;  !- X,Y,Z ==> Vertex 4 {m}

  FenestrationSurface:Detailed,
    E3 East Win (G.SW1.E2.W1),  !- Name
    Window,                  !- Surface Type
    Exterior Window,         !- Construction Name
    E3 East Wall (G.SW1.E2), !- Building Surface Name
    ,                        !- Outside Boundary Condition Object
    ,                        !- View Factor to Ground
    ,                        !- Frame and Divider Name
    ,                        !- Multiplier
    ,                        !- Number of Vertices
    64.70904,2.547042912,2.667,  !- X,Y,Z ==> Vertex 1 {m}
    64.70904,2.547042912,0.9144,  !- X,Y,Z ==> Vertex 2 {m}
    64.70904,7.4534268,0.9144,  !- X,Y,Z ==> Vertex 3 {m}
    64.70904,7.4534268,2.667;  !- X,Y,Z ==> Vertex 4 {m}

  FenestrationSurface:Detailed,
    E3 North Win (G.NE2.E4.W1),  !- Name
    Window,                  !- Surface Type
    Exterior Window,         !- Construction Name
    E3 North Wall (G.NE2.E4),!- Building Surface Name
    ,                        !- Outside Boundary Condition Object
    ,                        !- View Factor to Ground
    ,                        !- Frame and Divider Name
    ,                        !- Multiplier
    ,                        !- Number of Vertices
    60.752736,25.63371048,2.667,  !- X,Y,Z ==> Vertex 1 {m}
    60.752736,25.63371048,0.9144,  !- X,Y,Z ==> Vertex 2 {m}
    53.062632,25.63371048,0.9144,  !- X,Y,Z ==> Vertex 3 {m}
    53.062632,25.63371048,2.667;  !- X,Y,Z ==> Vertex 4 {m}

  FenestrationSurface:Detailed,
    E3 North Win (G.SW1.E3.W1),  !- Name
    Window,                  !- Surface Type
    Exterior Window,         !- Construction Name
    E3 North Wall (G.SW1.E3),!- Building Surface Name
    ,                        !- Outside Boundary Condition Object
    ,                        !- View Factor to Ground
    ,                        !- Frame and Divider Name
    ,                        !- Multiplier
    ,                        !- Number of Vertices
    45.4691496,25.63371048,2.667,  !- X,Y,Z ==> Vertex 1 {m}
    45.4691496,25.63371048,0.9144,  !- X,Y,Z ==> Vertex 2 {m}
    38.3996184,25.63371048,0.9144,  !- X,Y,Z ==> Vertex 3 {m}
    38.3996184,25.63371048,2.667;  !- X,Y,Z ==> Vertex 4 {m}

  FenestrationSurface:Detailed,
    E3 South Win (G.SW1.E1.W1),  !- Name
    Window,                  !- Surface Type
    Exterior Window,         !- Construction Name
    E3 South Wall (G.SW1.E1),!- Building Surface Name
    ,                        !- Outside Boundary Condition Object
    ,                        !- View Factor to Ground
    ,                        !- Frame and Divider Name
    ,                        !- Multiplier
    ,                        !- Number of Vertices
    42.3559224,0,2.667,  !- X,Y,Z ==> Vertex 1 {m}
    42.3559224,0,0.9144,  !- X,Y,Z ==> Vertex 2 {m}
    57.1155576,0,0.9144,  !- X,Y,Z ==> Vertex 3 {m}
    57.1155576,0,2.667;  !- X,Y,Z ==> Vertex 4 {m}

  FenestrationSurface:Detailed,
    E4 East Win (G.E2.E2.W1),!- Name
    Window,                  !- Surface Type
    Exterior Window,         !- Construction Name
    E4 East Wall (G.E2.E2),  !- Building Surface Name
    ,                        !- Outside Boundary Condition Object
    ,                        !- View Factor to Ground
    ,                        !- Frame and Divider Name
    ,                        !- Multiplier
    ,                        !- Number of Vertices
    64.70904,4.43843664,6.6294,  !- X,Y,Z ==> Vertex 1 {m}
    64.70904,4.43843664,4.8768,  !- X,Y,Z ==> Vertex 2 {m}
    64.70904,21.19524336,4.8768,  !- X,Y,Z ==> Vertex 3 {m}
    64.70904,21.19524336,6.6294;  !- X,Y,Z ==> Vertex 4 {m}

  FenestrationSurface:Detailed,
    E4 North Win (G.N3.E3.W1),  !- Name
    Window,                  !- Surface Type
    Exterior Window,         !- Construction Name
    E4 North Wall (G.N3.E3), !- Building Surface Name
    ,                        !- Outside Boundary Condition Object
    ,                        !- View Factor to Ground
    ,                        !- Frame and Divider Name
    ,                        !- Multiplier
    ,                        !- Number of Vertices
    55.9082448,25.63371048,6.6294,  !- X,Y,Z ==> Vertex 1 {m}
    55.9082448,25.63371048,4.8768,  !- X,Y,Z ==> Vertex 2 {m}
    22.3947228,25.63371048,4.8768,  !- X,Y,Z ==> Vertex 3 {m}
    22.3947228,25.63371048,6.6294;  !- X,Y,Z ==> Vertex 4 {m}

  FenestrationSurface:Detailed,
    E4 South Win (G.S1.E1.W1),  !- Name
    Window,                  !- Surface Type
    Exterior Window,         !- Construction Name
    E4 South Wall (G.S1.E1), !- Building Surface Name
    ,                        !- Outside Boundary Condition Object
    ,                        !- View Factor to Ground
    ,                        !- Frame and Divider Name
    ,                        !- Multiplier
    ,                        !- Number of Vertices
    22.39478376,0,6.6294,  !- X,Y,Z ==> Vertex 1 {m}
    22.39478376,0,4.8768,  !- X,Y,Z ==> Vertex 2 {m}
    55.9085496,0,4.8768,  !- X,Y,Z ==> Vertex 3 {m}
    55.9085496,0,6.6294;  !- X,Y,Z ==> Vertex 4 {m}

  FenestrationSurface:Detailed,
    E4 West Win (G.W4.E4.W1),!- Name
    Window,                  !- Surface Type
    Exterior Window,         !- Construction Name
    E4 West Wall (G.W4.E4),  !- Building Surface Name
    ,                        !- Outside Boundary Condition Object
    ,                        !- View Factor to Ground
    ,                        !- Frame and Divider Name
    ,                        !- Multiplier
    ,                        !- Number of Vertices
    13.59411048,21.19524336,6.6294,  !- X,Y,Z ==> Vertex 1 {m}
    13.59411048,21.19524336,4.8768,  !- X,Y,Z ==> Vertex 2 {m}
    13.59411048,4.43843664,4.8768,  !- X,Y,Z ==> Vertex 3 {m}
    13.59411048,4.43843664,6.6294;  !- X,Y,Z ==> Vertex 4 {m}

  Construction:FfactorGroundFloor,
    E1 Flr (G.W1.U1) SlabOnOrBelowGradeF073,  !- Name
    1.26343630645111,        !- F-Factor {W/m-K}
    348.467492277454,        !- Area {m2}
    52.82184;                !- PerimeterExposed {m}

  Construction:FfactorGroundFloor,
    E17 Flr (G.W1.U1) SlabOnOrBelowGradeF073,  !- Name
    1.26343630645111,        !- F-Factor {W/m-K}
    2090.3184,               !- Area {m2}
    182.88;                  !- PerimeterExposed {m}

  Construction:FfactorGroundFloor,
    E2 Flr (G.N3.U3) SlabOnOrBelowGradeF073,  !- Name
    1.26343630645111,        !- F-Factor {W/m-K}
    194.369718485592,        !- Area {m2}
    21.16832952;             !- PerimeterExposed {m}

  Construction:FfactorGroundFloor,
    E2 Flr (G.S2.U2) SlabOnOrBelowGradeF073,  !- Name
    1.26343630645111,        !- F-Factor {W/m-K}
    194.369718485592,        !- Area {m2}
    21.16832952;             !- PerimeterExposed {m}

  Construction:FfactorGroundFloor,
    E2 Flr (G.W1.U1) SlabOnOrBelowGradeF073,  !- Name
    1.26343630645111,        !- F-Factor {W/m-K}
    153.883393289733,        !- Area {m2}
    0;                       !- PerimeterExposed {m}

  Construction:FfactorGroundFloor,
    E3 Flr (G.NE2.U2) SlabOnOrBelowGradeF073,  !- Name
    1.26343630645111,        !- F-Factor {W/m-K}
    244.277821554348,        !- Area {m2}
    31.258764;               !- PerimeterExposed {m}

  Construction:FfactorGroundFloor,
    E3 Flr (G.SW1.U1) SlabOnOrBelowGradeF073,  !- Name
    1.26343630645111,        !- F-Factor {W/m-K}
    523.36465270602,         !- Area {m2}
    54.268116;               !- PerimeterExposed {m}

